"Displacements","Stress/Strain:0","Stress/Strain:1","Stress/Strain:2","Stress/Strain:3","Stress/Strain:4","Stress/Strain:5","Stress/Strain:6","Stress/Strain:7","Stress/Strain:8","Stress/Strain:9","Stress/Strain:10","Stress/Strain:11","Stress/Strain:12","Stress/Strain:13","Stress/Strain:14","Stress/Strain:15","Principal Stress:0","Principal Stress:1","Principal Stress:2","Principal Stress:3","Principal Stress:4","Principal Stress:5","Principal Stress:6","nodes:0","nodes:1","nodes:2"
1,0,0,0,0,0,0,0,0,0,0,0,0,0.54243,1.1838e-15,0,0.54243,0,0,0,45,0,0,0,0,0,0
0.9783,0,0,0,0,0,0,0,0,0,0,0,0,0.54237,6.0277e-05,0,0.54237,0,0,0,45,0,0,0,0.02,0,0
0.95661,0,0,0,0,0,0,0,0,0,0,0,0,0.54218,0.00012259,0,0.54218,0,0,0,45,0,0,0,0.04,0,0
0.93493,0,0,0,0,0,0,0,0,0,0,0,0,0.54187,0.00018899,0,0.54187,0,0,0,45,0,0,0,0.06,0,0
0.91326,0,0,0,0,0,0,0,0,0,0,0,0,0.54141,0.00026162,0,0.54141,0,0,0,45,0,0,0,0.08,0,0
0.89162,0,0,0,0,0,0,0,0,0,0,0,0,0.5408,0.00034269,0,0.5408,0,0,0,45,0,0,0,0.1,0,0
0.87,0,0,0,0,0,0,0,0,0,0,0,0,0.54002,0.00043453,0,0.54002,0,0,0,45,0,0,0,0.12,0,0
0.84841,0,0,0,0,0,0,0,0,0,0,0,0,0.53903,0.00053958,0,0.53903,0,0,0,45,0,0,0,0.14,0,0
0.82688,0,0,0,0,0,0,0,0,0,0,0,0,0.53782,0.00066035,0,0.53782,0,0,0,45,0,0,0,0.16,0,0
0.80539,0,0,0,0,0,0,0,0,0,0,0,0,0.53635,0.00079937,0,0.53635,0,0,0,45,0,0,0,0.18,0,0
0.78397,0,0,0,0,0,0,0,0,0,0,0,0,0.53458,0.00095909,0,0.53458,0,0,0,45,0,0,0,0.2,0,0
0.76262,0,0,0,0,0,0,0,0,0,0,0,0,0.53246,0.0011417,0,0.53246,0,0,0,45,0,0,0,0.22,0,0
0.74137,0,0,0,0,0,0,0,0,0,0,0,0,0.52995,0.0013488,0,0.52995,0,0,0,45,0,0,0,0.24,0,0
0.72023,0,0,0,0,0,0,0,0,0,0,0,0,0.527,0.0015813,0,0.52701,0,0,0,45,0,0,0,0.26,0,0
0.69921,0,0,0,0,0,0,0,0,0,0,0,0,0.52357,0.0018386,0,0.52357,0,0,0,45,0,0,0,0.28,0,0
0.67834,0,0,0,0,0,0,0,0,0,0,0,0,0.5196,0.0021181,0,0.5196,0,0,0,45,0,0,0,0.3,0,0
0.65764,0,0,0,0,0,0,0,0,0,0,0,0,0.51506,0.0024147,0,0.51506,0,0,0,45,0,0,0,0.32,0,0
0.63714,0,0,0,0,0,0,0,0,0,0,0,0,0.50992,0.00272,0,0.50993,0,0,0,45,0,0,0,0.34,0,0
0.61685,0,0,0,0,0,0,0,0,0,0,0,0,0.50419,0.0030213,0,0.5042,0,0,0,45,0,0,0,0.36,0,0
0.5968,0,0,0,0,0,0,0,0,0,0,0,0,0.49789,0.0033015,0,0.4979,0,0,0,45,0,0,0,0.38,0,0
0.57702,0,0,0,0,0,0,0,0,0,0,0,0,0.49108,0.0035384,0,0.4911,0,0,0,45,0,0,0,0.4,0,0
0.55751,0,0,0,0,0,0,0,0,0,0,0,0,0.4839,0.0037056,0,0.48391,0,0,0,45,0,0,0,0.42,0,0
0.53831,0,0,0,0,0,0,0,0,0,0,0,0,0.47649,0.0037741,0,0.47651,0,0,0,45,0,0,0,0.44,0,0
0.5194,0,0,0,0,0,0,0,0,0,0,0,0,0.46909,0.0037164,0,0.46911,0,0,0,45,0,0,0,0.46,0,0
0.50078,0,0,0,0,0,0,0,0,0,0,0,0,0.46197,0.0035107,0,0.46198,0,0,0,45,0,0,0,0.48,0,0
0.48244,0,0,0,0,0,0,0,0,0,0,0,0,0.45541,0.0031472,0,0.45543,0,0,0,45,0,0,0,0.5,0,0
0.46435,0,0,0,0,0,0,0,0,0,0,0,0,0.44973,0.0026303,0,0.44974,0,0,0,45,0,0,0,0.52,0,0
0.44646,0,0,0,0,0,0,0,0,0,0,0,0,0.4452,0.0019794,0,0.44521,0,0,0,45,0,0,0,0.54,0,0
0.42873,0,0,0,0,0,0,0,0,0,0,0,0,0.44205,0.0012262,0,0.44205,0,0,0,45,0,0,0,0.56,0,0
0.41109,0,0,0,0,0,0,0,0,0,0,0,0,0.44044,0.00040928,0,0.44044,0,0,0,45,0,0,0,0.58,0,0
0.39349,0,0,0,0,0,0,0,0,0,0,0,0,0.44046,-0.00042885,0,0.44046,0,0,0,45,0,0,0,0.6,0,0
0.37586,0,0,0,0,0,0,0,0,0,0,0,0,0.44211,-0.001245,0,0.44211,0,0,0,45,0,0,0,0.62,0,0
0.35813,0,0,0,0,0,0,0,0,0,0,0,0,0.44529,-0.0019968,0,0.4453,0,0,0,45,0,0,0,0.64,0,0
0.34023,0,0,0,0,0,0,0,0,0,0,0,0,0.44986,-0.0026452,0,0.44986,0,0,0,45,0,0,0,0.66,0,0
0.32214,0,0,0,0,0,0,0,0,0,0,0,0,0.45556,-0.0031586,0,0.45558,0,0,0,45,0,0,0,0.68,0,0
0.30379,0,0,0,0,0,0,0,0,0,0,0,0,0.46214,-0.0035173,0,0.46215,0,0,0,45,0,0,0,0.7,0,0
0.28517,0,0,0,0,0,0,0,0,0,0,0,0,0.46926,-0.0037161,0,0.46928,0,0,0,45,0,0,0,0.72,0,0
0.26625,0,0,0,0,0,0,0,0,0,0,0,0,0.47665,-0.0037648,0,0.47667,0,0,0,45,0,0,0,0.74,0,0
0.24703,0,0,0,0,0,0,0,0,0,0,0,0,0.48402,-0.003684,0,0.48404,0,0,0,45,0,0,0,0.76,0,0
0.22753,0,0,0,0,0,0,0,0,0,0,0,0,0.49115,-0.0035007,0,0.49116,0,0,0,45,0,0,0,0.78,0,0
0.20774,0,0,0,0,0,0,0,0,0,0,0,0,0.49785,-0.0032429,0,0.49786,0,0,0,45,0,0,0,0.8,0,0
0.1877,0,0,0,0,0,0,0,0,0,0,0,0,0.50401,-0.0029359,0,0.50401,0,0,0,45,0,0,0,0.82,0,0
0.16742,0,0,0,0,0,0,0,0,0,0,0,0,0.50953,-0.0026007,0,0.50953,0,0,0,45,0,0,0,0.84,0,0
0.14694,0,0,0,0,0,0,0,0,0,0,0,0,0.51438,-0.0022535,0,0.51438,0,0,0,45,0,0,0,0.86,0,0
0.12627,0,0,0,0,0,0,0,0,0,0,0,0,0.51854,-0.0019055,0,0.51854,0,0,0,45,0,0,0,0.88,0,0
0.10545,0,0,0,0,0,0,0,0,0,0,0,0,0.52201,-0.001564,0,0.52202,0,0,0,45,0,0,0,0.9,0,0
0.084509,0,0,0,0,0,0,0,0,0,0,0,0,0.52482,-0.0012326,0,0.52482,0,0,0,45,0,0,0,0.92,0,0
0.063467,0,0,0,0,0,0,0,0,0,0,0,0,0.52697,-0.00091225,0,0.52697,0,0,0,45,0,0,0,0.94,0,0
0.042352,0,0,0,0,0,0,0,0,0,0,0,0,0.52849,-0.00060191,0,0.52849,0,0,0,45,0,0,0,0.96,0,0
0.021188,0,0,0,0,0,0,0,0,0,0,0,0,0.52939,-0.00029899,0,0.52939,0,0,0,45,0,0,0,0.98,0,0
0,0,0,0,0,0,0,0,0,0,0,0,0,0.5297,1.0815e-17,0,0.5297,0,0,0,45,0,0,0,1,0,0
1,0,0,0,0,0,0,0,0,0,0,0,0,0.54249,1.1749e-15,0,0.54249,0,0,0,45,0,0,0,0,0.02,0
0.9783,0,0,0,0,0,0,0,0,0,0,0,0,0.54243,0.00011954,0,0.54243,0,0,0,45,0,0,0,0.02,0.02,0
0.95661,0,0,0,0,0,0,0,0,0,0,0,0,0.54225,0.00024313,0,0.54225,0,0,0,45,0,0,0,0.04,0.02,0
0.93492,0,0,0,0,0,0,0,0,0,0,0,0,0.54194,0.00037488,0,0.54194,0,0,0,45,0,0,0,0.06,0.02,0
0.91325,0,0,0,0,0,0,0,0,0,0,0,0,0.54149,0.00051903,0,0.54149,0,0,0,45,0,0,0,0.08,0.02,0
0.8916,0,0,0,0,0,0,0,0,0,0,0,0,0.54089,0.00068001,0,0.54089,0,0,0,45,0,0,0,0.1,0.02,0
0.86998,0,0,0,0,0,0,0,0,0,0,0,0,0.54011,0.00086248,0,0.54012,0,0,0,45,0,0,0,0.12,0.02,0
0.84839,0,0,0,0,0,0,0,0,0,0,0,0,0.53914,0.0010713,0,0.53915,0,0,0,45,0,0,0,0.14,0.02,0
0.82685,0,0,0,0,0,0,0,0,0,0,0,0,0.53795,0.0013116,0,0.53795,0,0,0,45,0,0,0,0.16,0.02,0
0.80536,0,0,0,0,0,0,0,0,0,0,0,0,0.5365,0.0015883,0,0.5365,0,0,0,45,0,0,0,0.18,0.02,0
0.78393,0,0,0,0,0,0,0,0,0,0,0,0,0.53475,0.0019066,0,0.53475,0,0,0,45,0,0,0,0.2,0.02,0
0.76258,0,0,0,0,0,0,0,0,0,0,0,0,0.53265,0.002271,0,0.53266,0,0,0,45,0,0,0,0.22,0.02,0
0.74132,0,0,0,0,0,0,0,0,0,0,0,0,0.53017,0.0026848,0,0.53018,0,0,0,45,0,0,0,0.24,0.02,0
0.72016,0,0,0,0,0,0,0,0,0,0,0,0,0.52725,0.00315,0,0.52726,0,0,0,45,0,0,0,0.26,0.02,0
0.69914,0,0,0,0,0,0,0,0,0,0,0,0,0.52384,0.0036656,0,0.52385,0,0,0,45,0,0,0,0.28,0.02,0
0.67826,0,0,0,0,0,0,0,0,0,0,0,0,0.51989,0.0042271,0,0.51991,0,0,0,45,0,0,0,0.3,0.02,0
0.65755,0,0,0,0,0,0,0,0,0,0,0,0,0.51536,0.0048245,0,0.51539,0,0,0,45,0,0,0,0.32,0.02,0
0.63703,0,0,0,0,0,0,0,0,0,0,0,0,0.51023,0.0054411,0,0.51026,0,0,0,45,0,0,0,0.34,0.02,0
0.61673,0,0,0,0,0,0,0,0,0,0,0,0,0.50448,0.0060524,0,0.50453,0,0,0,45,0,0,0,0.36,0.02,0
0.59667,0,0,0,0,0,0,0,0,0,0,0,0,0.49815,0.0066239,0,0.4982,0,0,0,45,0,0,0,0.38,0.02,0
0.57688,0,0,0,0,0,0,0,0,0,0,0,0,0.49129,0.0071112,0,0.49135,0,0,0,45,0,0,0,0.4,0.02,0
0.55737,0,0,0,0,0,0,0,0,0,0,0,0,0.48401,0.0074606,0,0.48409,0,0,0,45,0,0,0,0.42,0.02,0
0.53815,0,0,0,0,0,0,0,0,0,0,0,0,0.4765,0.0076124,0,0.47657,0,0,0,45,0,0,0,0.44,0.02,0
0.51925,0,0,0,0,0,0,0,0,0,0,0,0,0.46896,0.0075086,0,0.46904,0,0,0,45,0,0,0,0.46,0.02,0
0.50064,0,0,0,0,0,0,0,0,0,0,0,0,0.46168,0.0071031,0,0.46175,0,0,0,45,0,0,0,0.48,0.02,0
0.48231,0,0,0,0,0,0,0,0,0,0,0,0,0.45497,0.0063738,0,0.45503,0,0,0,45,0,0,0,0.5,0.02,0
0.46424,0,0,0,0,0,0,0,0,0,0,0,0,0.44915,0.0053295,0,0.44919,0,0,0,45,0,0,0,0.52,0.02,0
0.44638,0,0,0,0,0,0,0,0,0,0,0,0,0.4445,0.0040113,0,0.44452,0,0,0,45,0,0,0,0.54,0.02,0
0.42868,0,0,0,0,0,0,0,0,0,0,0,0,0.44127,0.0024845,0,0.44127,0,0,0,45,0,0,0,0.56,0.02,0
0.41108,0,0,0,0,0,0,0,0,0,0,0,0,0.43962,0.00082928,0,0.43962,0,0,0,45,0,0,0,0.58,0.02,0
0.39351,0,0,0,0,0,0,0,0,0,0,0,0,0.43964,-0.00086878,0,0.43964,0,0,0,45,0,0,0,0.6,0.02,0
0.37591,0,0,0,0,0,0,0,0,0,0,0,0,0.44132,-0.0025226,0,0.44133,0,0,0,45,0,0,0,0.62,0.02,0
0.3582,0,0,0,0,0,0,0,0,0,0,0,0,0.44459,-0.0040464,0,0.44462,0,0,0,45,0,0,0,0.64,0.02,0
0.34034,0,0,0,0,0,0,0,0,0,0,0,0,0.44928,-0.00536,0,0.44932,0,0,0,45,0,0,0,0.66,0.02,0
0.32226,0,0,0,0,0,0,0,0,0,0,0,0,0.45513,-0.0063974,0,0.45518,0,0,0,45,0,0,0,0.68,0.02,0
0.30393,0,0,0,0,0,0,0,0,0,0,0,0,0.46186,-0.0071171,0,0.46192,0,0,0,45,0,0,0,0.7,0.02,0
0.28531,0,0,0,0,0,0,0,0,0,0,0,0,0.46914,-0.0075093,0,0.46922,0,0,0,45,0,0,0,0.72,0.02,0
0.2664,0,0,0,0,0,0,0,0,0,0,0,0,0.47667,-0.0075952,0,0.47674,0,0,0,45,0,0,0,0.74,0.02,0
0.24718,0,0,0,0,0,0,0,0,0,0,0,0,0.48416,-0.0074194,0,0.48423,0,0,0,45,0,0,0,0.76,0.02,0
0.22767,0,0,0,0,0,0,0,0,0,0,0,0,0.49137,-0.0070383,0,0.49143,0,0,0,45,0,0,0,0.78,0.02,0
0.20787,0,0,0,0,0,0,0,0,0,0,0,0,0.49813,-0.0065095,0,0.49819,0,0,0,45,0,0,0,0.8,0.02,0
0.18782,0,0,0,0,0,0,0,0,0,0,0,0,0.50433,-0.0058849,0,0.50437,0,0,0,45,0,0,0,0.82,0.02,0
0.16753,0,0,0,0,0,0,0,0,0,0,0,0,0.50987,-0.0052067,0,0.5099,0,0,0,45,0,0,0,0.84,0.02,0
0.14703,0,0,0,0,0,0,0,0,0,0,0,0,0.51473,-0.0045067,0,0.51475,0,0,0,45,0,0,0,0.86,0.02,0
0.12635,0,0,0,0,0,0,0,0,0,0,0,0,0.51888,-0.0038073,0,0.5189,0,0,0,45,0,0,0,0.88,0.02,0
0.10551,0,0,0,0,0,0,0,0,0,0,0,0,0.52235,-0.0031225,0,0.52236,0,0,0,45,0,0,0,0.9,0.02,0
0.084558,0,0,0,0,0,0,0,0,0,0,0,0,0.52514,-0.0024593,0,0.52515,0,0,0,45,0,0,0,0.92,0.02,0
0.063504,0,0,0,0,0,0,0,0,0,0,0,0,0.52729,-0.0018193,0,0.52729,0,0,0,45,0,0,0,0.94,0.02,0
0.042376,0,0,0,0,0,0,0,0,0,0,0,0,0.5288,-0.0012,0,0.5288,0,0,0,45,0,0,0,0.96,0.02,0
0.0212,0,0,0,0,0,0,0,0,0,0,0,0,0.5297,-0.00059594,0,0.5297,0,0,0,45,0,0,0,0.98,0.02,0
0,0,0,0,0,0,0,0,0,0,0,0,0,0.52999,2.0329e-18,0,0.52999,0,0,0,45,0,0,0,1,0.02,0
1,0,0,0,0,0,0,0,0,0,0,0,0,0.54267,-6.9034e-16,0,0.54267,0,0,0,45,0,0,0,0,0.04,0
0.97829,0,0,0,0,0,0,0,0,0,0,0,0,0.54261,0.00023507,0,0.54261,0,0,0,45,0,0,0,0.02,0.04,0
0.95659,0,0,0,0,0,0,0,0,0,0,0,0,0.54244,0.00047816,0,0.54244,0,0,0,45,0,0,0,0.04,0.04,0
0.9349,0,0,0,0,0,0,0,0,0,0,0,0,0.54214,0.00073742,0,0.54214,0,0,0,45,0,0,0,0.06,0.04,0
0.91322,0,0,0,0,0,0,0,0,0,0,0,0,0.54172,0.0010213,0,0.54172,0,0,0,45,0,0,0,0.08,0.04,0
0.89156,0,0,0,0,0,0,0,0,0,0,0,0,0.54114,0.0013386,0,0.54115,0,0,0,45,0,0,0,0.1,0.04,0
0.86993,0,0,0,0,0,0,0,0,0,0,0,0,0.54041,0.0016987,0,0.54041,0,0,0,45,0,0,0,0.12,0.04,0
0.84833,0,0,0,0,0,0,0,0,0,0,0,0,0.53948,0.0021112,0,0.53949,0,0,0,45,0,0,0,0.14,0.04,0
0.82677,0,0,0,0,0,0,0,0,0,0,0,0,0.53834,0.0025865,0,0.53834,0,0,0,45,0,0,0,0.16,0.04,0
0.80526,0,0,0,0,0,0,0,0,0,0,0,0,0.53694,0.003135,0,0.53695,0,0,0,45,0,0,0,0.18,0.04,0
0.78381,0,0,0,0,0,0,0,0,0,0,0,0,0.53526,0.003767,0,0.53527,0,0,0,45,0,0,0,0.2,0.04,0
0.76244,0,0,0,0,0,0,0,0,0,0,0,0,0.53324,0.0044919,0,0.53326,0,0,0,45,0,0,0,0.22,0.04,0
0.74116,0,0,0,0,0,0,0,0,0,0,0,0,0.53083,0.0053174,0,0.53086,0,0,0,45,0,0,0,0.24,0.04,0
0.71997,0,0,0,0,0,0,0,0,0,0,0,0,0.52799,0.0062483,0,0.52802,0,0,0,45,0,0,0,0.26,0.04,0
0.69892,0,0,0,0,0,0,0,0,0,0,0,0,0.52465,0.0072838,0,0.5247,0,0,0,45,0,0,0,0.28,0.04,0
0.678,0,0,0,0,0,0,0,0,0,0,0,0,0.52076,0.008416,0,0.52083,0,0,0,45,0,0,0,0.3,0.04,0
0.65726,0,0,0,0,0,0,0,0,0,0,0,0,0.51627,0.0096268,0,0.51637,0,0,0,45,0,0,0,0.32,0.04,0
0.6367,0,0,0,0,0,0,0,0,0,0,0,0,0.51115,0.010885,0,0.51127,0,0,0,45,0,0,0,0.34,0.04,0
0.61636,0,0,0,0,0,0,0,0,0,0,0,0,0.50537,0.012141,0,0.50553,0,0,0,45,0,0,0,0.36,0.04,0
0.59627,0,0,0,0,0,0,0,0,0,0,0,0,0.49895,0.013329,0,0.49913,0,0,0,45,0,0,0,0.38,0.04,0
0.57645,0,0,0,0,0,0,0,0,0,0,0,0,0.49192,0.014358,0,0.49214,0,0,0,45,0,0,0,0.4,0.04,0
0.55692,0,0,0,0,0,0,0,0,0,0,0,0,0.4844,0.015119,0,0.48465,0,0,0,45,0,0,0,0.42,0.04,0
0.5377,0,0,0,0,0,0,0,0,0,0,0,0,0.47654,0.015484,0,0.47681,0,0,0,45,0,0,0,0.44,0.04,0
0.51879,0,0,0,0,0,0,0,0,0,0,0,0,0.46858,0.015327,0,0.46885,0,0,0,45,0,0,0,0.46,0.04,0
0.50021,0,0,0,0,0,0,0,0,0,0,0,0,0.46083,0.014542,0,0.46108,0,0,0,45,0,0,0,0.48,0.04,0
0.48193,0,0,0,0,0,0,0,0,0,0,0,0,0.45364,0.013074,0,0.45384,0,0,0,45,0,0,0,0.5,0.04,0
0.46392,0,0,0,0,0,0,0,0,0,0,0,0,0.44737,0.010942,0,0.44751,0,0,0,45,0,0,0,0.52,0.04,0
0.44614,0,0,0,0,0,0,0,0,0,0,0,0,0.44236,0.0082355,0,0.44244,0,0,0,45,0,0,0,0.54,0.04,0
0.42853,0,0,0,0,0,0,0,0,0,0,0,0,0.43887,0.0050988,0,0.4389,0,0,0,45,0,0,0,0.56,0.04,0
0.41103,0,0,0,0,0,0,0,0,0,0,0,0,0.43709,0.0017014,0,0.43709,0,0,0,45,0,0,0,0.58,0.04,0
0.39356,0,0,0,0,0,0,0,0,0,0,0,0,0.43711,-0.0017818,0,0.43711,0,0,0,45,0,0,0,0.6,0.04,0
0.37606,0,0,0,0,0,0,0,0,0,0,0,0,0.43893,-0.0051765,0,0.43896,0,0,0,45,0,0,0,0.62,0.04,0
0.35845,0,0,0,0,0,0,0,0,0,0,0,0,0.44246,-0.0083075,0,0.44254,0,0,0,45,0,0,0,0.64,0.04,0
0.34066,0,0,0,0,0,0,0,0,0,0,0,0,0.44751,-0.011005,0,0.44765,0,0,0,45,0,0,0,0.66,0.04,0
0.32265,0,0,0,0,0,0,0,0,0,0,0,0,0.45381,-0.013124,0,0.45401,0,0,0,45,0,0,0,0.68,0.04,0
0.30436,0,0,0,0,0,0,0,0,0,0,0,0,0.46102,-0.014573,0,0.46127,0,0,0,45,0,0,0,0.7,0.04,0
0.28577,0,0,0,0,0,0,0,0,0,0,0,0,0.46879,-0.015333,0,0.46905,0,0,0,45,0,0,0,0.72,0.04,0
0.26686,0,0,0,0,0,0,0,0,0,0,0,0,0.47674,-0.015456,0,0.47701,0,0,0,45,0,0,0,0.74,0.04,0
0.24763,0,0,0,0,0,0,0,0,0,0,0,0,0.48458,-0.015044,0,0.48483,0,0,0,45,0,0,0,0.76,0.04,0
0.22809,0,0,0,0,0,0,0,0,0,0,0,0,0.49206,-0.014222,0,0.49228,0,0,0,45,0,0,0,0.78,0.04,0
0.20826,0,0,0,0,0,0,0,0,0,0,0,0,0.49901,-0.013111,0,0.49919,0,0,0,45,0,0,0,0.8,0.04,0
0.18817,0,0,0,0,0,0,0,0,0,0,0,0,0.50531,-0.01182,0,0.50545,0,0,0,45,0,0,0,0.82,0.04,0
0.16784,0,0,0,0,0,0,0,0,0,0,0,0,0.51091,-0.010432,0,0.51102,0,0,0,45,0,0,0,0.84,0.04,0
0.1473,0,0,0,0,0,0,0,0,0,0,0,0,0.51578,-0.00901,0,0.51586,0,0,0,45,0,0,0,0.86,0.04,0
0.12657,0,0,0,0,0,0,0,0,0,0,0,0,0.51992,-0.0075978,0,0.51998,0,0,0,45,0,0,0,0.88,0.04,0
0.1057,0,0,0,0,0,0,0,0,0,0,0,0,0.52336,-0.0062216,0,0.5234,0,0,0,45,0,0,0,0.9,0.04,0
0.084706,0,0,0,0,0,0,0,0,0,0,0,0,0.52612,-0.004894,0,0.52614,0,0,0,45,0,0,0,0.92,0.04,0
0.063613,0,0,0,0,0,0,0,0,0,0,0,0,0.52823,-0.0036169,0,0.52824,0,0,0,45,0,0,0,0.94,0.04,0
0.042448,0,0,0,0,0,0,0,0,0,0,0,0,0.52971,-0.002384,0,0.52972,0,0,0,45,0,0,0,0.96,0.04,0
0.021236,0,0,0,0,0,0,0,0,0,0,0,0,0.5306,-0.0011835,0,0.5306,0,0,0,45,0,0,0,0.98,0.04,0
0,0,0,0,0,0,0,0,0,0,0,0,0,0.53089,1.0842e-19,0,0.53089,0,0,0,45,0,0,0,1,0.04,0
1,0,0,0,0,0,0,0,0,0,0,0,0,0.54296,-5.827e-16,0,0.54296,0,0,0,45,0,0,0,0,0.06,0
0.97828,0,0,0,0,0,0,0,0,0,0,0,0,0.54291,0.00034263,0,0.54291,0,0,0,45,0,0,0,0.02,0.06,0
0.95657,0,0,0,0,0,0,0,0,0,0,0,0,0.54275,0.0006971,0,0.54275,0,0,0,45,0,0,0,0.04,0.06,0
0.93486,0,0,0,0,0,0,0,0,0,0,0,0,0.54248,0.0010755,0,0.54248,0,0,0,45,0,0,0,0.06,0.06,0
0.91317,0,0,0,0,0,0,0,0,0,0,0,0,0.54209,0.0014903,0,0.54209,0,0,0,45,0,0,0,0.08,0.06,0
0.8915,0,0,0,0,0,0,0,0,0,0,0,0,0.54156,0.0019547,0,0.54157,0,0,0,45,0,0,0,0.1,0.06,0
0.86984,0,0,0,0,0,0,0,0,0,0,0,0,0.54089,0.0024825,0,0.54089,0,0,0,45,0,0,0,0.12,0.06,0
0.84822,0,0,0,0,0,0,0,0,0,0,0,0,0.54003,0.0030885,0,0.54004,0,0,0,45,0,0,0,0.14,0.06,0
0.82664,0,0,0,0,0,0,0,0,0,0,0,0,0.53897,0.0037883,0,0.53899,0,0,0,45,0,0,0,0.16,0.06,0
0.80511,0,0,0,0,0,0,0,0,0,0,0,0,0.53768,0.004598,0,0.5377,0,0,0,45,0,0,0,0.18,0.06,0
0.78363,0,0,0,0,0,0,0,0,0,0,0,0,0.5361,0.0055338,0,0.53613,0,0,0,45,0,0,0,0.2,0.06,0
0.76222,0,0,0,0,0,0,0,0,0,0,0,0,0.5342,0.0066111,0,0.53425,0,0,0,45,0,0,0,0.22,0.06,0
0.74089,0,0,0,0,0,0,0,0,0,0,0,0,0.53193,0.0078432,0,0.53199,0,0,0,45,0,0,0,0.24,0.06,0
0.71966,0,0,0,0,0,0,0,0,0,0,0,0,0.52922,0.0092394,0,0.5293,0,0,0,45,0,0,0,0.26,0.06,0
0.69855,0,0,0,0,0,0,0,0,0,0,0,0,0.526,0.010802,0,0.52612,0,0,0,45,0,0,0,0.28,0.06,0
0.67758,0,0,0,0,0,0,0,0,0,0,0,0,0.52223,0.012522,0,0.52238,0,0,0,45,0,0,0,0.3,0.06,0
0.65677,0,0,0,0,0,0,0,0,0,0,0,0,0.51783,0.014377,0,0.51803,0,0,0,45,0,0,0,0.32,0.06,0
0.63616,0,0,0,0,0,0,0,0,0,0,0,0,0.51274,0.016323,0,0.51301,0,0,0,45,0,0,0,0.34,0.06,0
0.61576,0,0,0,0,0,0,0,0,0,0,0,0,0.50692,0.018291,0,0.50726,0,0,0,45,0,0,0,0.36,0.06,0
0.5956,0,0,0,0,0,0,0,0,0,0,0,0,0.50036,0.020184,0,0.50078,0,0,0,45,0,0,0,0.38,0.06,0
0.57573,0,0,0,0,0,0,0,0,0,0,0,0,0.49308,0.021867,0,0.49358,0,0,0,45,0,0,0,0.4,0.06,0
0.55616,0,0,0,0,0,0,0,0,0,0,0,0,0.48514,0.02317,0,0.48571,0,0,0,45,0,0,0,0.42,0.06,0
0.53692,0,0,0,0,0,0,0,0,0,0,0,0,0.47671,0.023886,0,0.47732,0,0,0,45,0,0,0,0.44,0.06,0
0.51802,0,0,0,0,0,0,0,0,0,0,0,0,0.46802,0.023792,0,0.46864,0,0,0,45,0,0,0,0.46,0.06,0
0.49947,0,0,0,0,0,0,0,0,0,0,0,0,0.45943,0.022689,0,0.46001,0,0,0,45,0,0,0,0.48,0.06,0
0.48127,0,0,0,0,0,0,0,0,0,0,0,0,0.45137,0.020466,0,0.45185,0,0,0,45,0,0,0,0.5,0.06,0
0.46336,0,0,0,0,0,0,0,0,0,0,0,0,0.44431,0.017147,0,0.44465,0,0,0,45,0,0,0,0.52,0.06,0
0.44572,0,0,0,0,0,0,0,0,0,0,0,0,0.43866,0.012897,0,0.43885,0,0,0,45,0,0,0,0.54,0.06,0
0.42827,0,0,0,0,0,0,0,0,0,0,0,0,0.43473,0.0079734,0,0.4348,0,0,0,45,0,0,0,0.56,0.06,0
0.41094,0,0,0,0,0,0,0,0,0,0,0,0,0.43274,0.0026581,0,0.43274,0,0,0,45,0,0,0,0.58,0.06,0
0.39365,0,0,0,0,0,0,0,0,0,0,0,0,0.43276,-0.002782,0,0.43276,0,0,0,45,0,0,0,0.6,0.06,0
0.37632,0,0,0,0,0,0,0,0,0,0,0,0,0.4348,-0.0080934,0,0.43487,0,0,0,45,0,0,0,0.62,0.06,0
0.35887,0,0,0,0,0,0,0,0,0,0,0,0,0.43877,-0.013009,0,0.43896,0,0,0,45,0,0,0,0.64,0.06,0
0.34122,0,0,0,0,0,0,0,0,0,0,0,0,0.44446,-0.017247,0,0.4448,0,0,0,45,0,0,0,0.66,0.06,0
0.32331,0,0,0,0,0,0,0,0,0,0,0,0,0.45156,-0.020547,0,0.45204,0,0,0,45,0,0,0,0.68,0.06,0
0.3051,0,0,0,0,0,0,0,0,0,0,0,0,0.45965,-0.022745,0,0.46023,0,0,0,45,0,0,0,0.7,0.06,0
0.28654,0,0,0,0,0,0,0,0,0,0,0,0,0.46826,-0.023812,0,0.46888,0,0,0,45,0,0,0,0.72,0.06,0
0.26764,0,0,0,0,0,0,0,0,0,0,0,0,0.47696,-0.023858,0,0.47757,0,0,0,45,0,0,0,0.74,0.06,0
0.24838,0,0,0,0,0,0,0,0,0,0,0,0,0.48539,-0.023077,0,0.48596,0,0,0,45,0,0,0,0.76,0.06,0
0.2288,0,0,0,0,0,0,0,0,0,0,0,0,0.4933,-0.021686,0,0.49379,0,0,0,45,0,0,0,0.78,0.06,0
0.20892,0,0,0,0,0,0,0,0,0,0,0,0,0.50054,-0.019887,0,0.50094,0,0,0,45,0,0,0,0.8,0.06,0
0.18876,0,0,0,0,0,0,0,0,0,0,0,0,0.50701,-0.017844,0,0.50733,0,0,0,45,0,0,0,0.82,0.06,0
0.16836,0,0,0,0,0,0,0,0,0,0,0,0,0.51268,-0.015684,0,0.51292,0,0,0,45,0,0,0,0.84,0.06,0
0.14775,0,0,0,0,0,0,0,0,0,0,0,0,0.51756,-0.013498,0,0.51774,0,0,0,45,0,0,0,0.86,0.06,0
0.12695,0,0,0,0,0,0,0,0,0,0,0,0,0.52167,-0.011348,0,0.5218,0,0,0,45,0,0,0,0.88,0.06,0
0.10601,0,0,0,0,0,0,0,0,0,0,0,0,0.52506,-0.0092684,0,0.52514,0,0,0,45,0,0,0,0.9,0.06,0
0.08495,0,0,0,0,0,0,0,0,0,0,0,0,0.52775,-0.0072757,0,0.5278,0,0,0,45,0,0,0,0.92,0.06,0
0.063793,0,0,0,0,0,0,0,0,0,0,0,0,0.5298,-0.0053685,0,0.52982,0,0,0,45,0,0,0,0.94,0.06,0
0.042566,0,0,0,0,0,0,0,0,0,0,0,0,0.53123,-0.0035346,0,0.53124,0,0,0,45,0,0,0,0.96,0.06,0
0.021294,0,0,0,0,0,0,0,0,0,0,0,0,0.53208,-0.0017535,0,0.53208,0,0,0,45,0,0,0,0.98,0.06,0
0,0,0,0,0,0,0,0,0,0,0,0,0,0.53236,1.0842e-19,0,0.53236,0,0,0,45,0,0,0,1,0.06,0
1,0,0,0,0,0,0,0,0,0,0,0,0,0.54335,-5.2646e-16,0,0.54335,0,0,0,45,0,0,0,0,0.08,0
0.97827,0,0,0,0,0,0,0,0,0,0,0,0,0.54331,0.00043842,0,0.54331,0,0,0,45,0,0,0,0.02,0.08,0
0.95654,0,0,0,0,0,0,0,0,0,0,0,0,0.54317,0.00089228,0,0.54317,0,0,0,45,0,0,0,0.04,0.08,0
0.93481,0,0,0,0,0,0,0,0,0,0,0,0,0.54294,0.0013773,0,0.54294,0,0,0,45,0,0,0,0.06,0.08,0
0.9131,0,0,0,0,0,0,0,0,0,0,0,0,0.5426,0.00191,0,0.5426,0,0,0,45,0,0,0,0.08,0.08,0
0.89141,0,0,0,0,0,0,0,0,0,0,0,0,0.54214,0.0025075,0,0.54214,0,0,0,45,0,0,0,0.1,0.08,0
0.86973,0,0,0,0,0,0,0,0,0,0,0,0,0.54154,0.0031884,0,0.54155,0,0,0,45,0,0,0,0.12,0.08,0
0.84808,0,0,0,0,0,0,0,0,0,0,0,0,0.54079,0.0039723,0,0.5408,0,0,0,45,0,0,0,0.14,0.08,0
0.82647,0,0,0,0,0,0,0,0,0,0,0,0,0.53985,0.0048803,0,0.53987,0,0,0,45,0,0,0,0.16,0.08,0
0.80489,0,0,0,0,0,0,0,0,0,0,0,0,0.53869,0.0059347,0,0.53872,0,0,0,45,0,0,0,0.18,0.08,0
0.78337,0,0,0,0,0,0,0,0,0,0,0,0,0.53727,0.0071585,0,0.53732,0,0,0,45,0,0,0,0.2,0.08,0
0.76191,0,0,0,0,0,0,0,0,0,0,0,0,0.53555,0.0085742,0,0.53561,0,0,0,45,0,0,0,0.22,0.08,0
0.74053,0,0,0,0,0,0,0,0,0,0,0,0,0.53346,0.010203,0,0.53356,0,0,0,45,0,0,0,0.24,0.08,0
0.71923,0,0,0,0,0,0,0,0,0,0,0,0,0.53094,0.012061,0,0.53108,0,0,0,45,0,0,0,0.26,0.08,0
0.69805,0,0,0,0,0,0,0,0,0,0,0,0,0.52793,0.014157,0,0.52812,0,0,0,45,0,0,0,0.28,0.08,0
0.677,0,0,0,0,0,0,0,0,0,0,0,0,0.52433,0.016487,0,0.5246,0,0,0,45,0,0,0,0.3,0.08,0
0.65611,0,0,0,0,0,0,0,0,0,0,0,0,0.52007,0.019027,0,0.52042,0,0,0,45,0,0,0,0.32,0.08,0
0.6354,0,0,0,0,0,0,0,0,0,0,0,0,0.51506,0.021728,0,0.51553,0,0,0,45,0,0,0,0.34,0.08,0
0.6149,0,0,0,0,0,0,0,0,0,0,0,0,0.50923,0.024506,0,0.50983,0,0,0,45,0,0,0,0.36,0.08,0
0.59466,0,0,0,0,0,0,0,0,0,0,0,0,0.50252,0.027235,0,0.50327,0,0,0,45,0,0,0,0.38,0.08,0
0.5747,0,0,0,0,0,0,0,0,0,0,0,0,0.49491,0.029743,0,0.49582,0,0,0,45,0,0,0,0.4,0.08,0
0.55506,0,0,0,0,0,0,0,0,0,0,0,0,0.48642,0.031799,0,0.48748,0,0,0,45,0,0,0,0.42,0.08,0
0.53578,0,0,0,0,0,0,0,0,0,0,0,0,0.47716,0.033103,0,0.47833,0,0,0,45,0,0,0,0.44,0.08,0
0.51689,0,0,0,0,0,0,0,0,0,0,0,0,0.46739,0.033295,0,0.4686,0,0,0,45,0,0,0,0.46,0.08,0
0.49839,0,0,0,0,0,0,0,0,0,0,0,0,0.45751,0.032008,0,0.45865,0,0,0,45,0,0,0,0.48,0.08,0
0.48029,0,0,0,0,0,0,0,0,0,0,0,0,0.4481,0.029009,0,0.44906,0,0,0,45,0,0,0,0.5,0.08,0
0.46255,0,0,0,0,0,0,0,0,0,0,0,0,0.4398,0.024318,0,0.44048,0,0,0,45,0,0,0,0.52,0.08,0
0.44511,0,0,0,0,0,0,0,0,0,0,0,0,0.43318,0.018237,0,0.43357,0,0,0,45,0,0,0,0.54,0.08,0
0.42789,0,0,0,0,0,0,0,0,0,0,0,0,0.42863,0.011226,0,0.42877,0,0,0,45,0,0,0,0.56,0.08,0
0.41082,0,0,0,0,0,0,0,0,0,0,0,0,0.42634,0.0037323,0,0.42634,0,0,0,45,0,0,0,0.58,0.08,0
0.39378,0,0,0,0,0,0,0,0,0,0,0,0,0.42636,-0.0039034,0,0.42637,0,0,0,45,0,0,0,0.6,0.08,0
0.37671,0,0,0,0,0,0,0,0,0,0,0,0,0.4287,-0.011393,0,0.42885,0,0,0,45,0,0,0,0.62,0.08,0
0.35949,0,0,0,0,0,0,0,0,0,0,0,0,0.4333,-0.018394,0,0.43369,0,0,0,45,0,0,0,0.64,0.08,0
0.34204,0,0,0,0,0,0,0,0,0,0,0,0,0.43997,-0.024459,0,0.44066,0,0,0,45,0,0,0,0.66,0.08,0
0.32429,0,0,0,0,0,0,0,0,0,0,0,0,0.44831,-0.029129,0,0.44928,0,0,0,45,0,0,0,0.68,0.08,0
0.30618,0,0,0,0,0,0,0,0,0,0,0,0,0.45776,-0.032097,0,0.45891,0,0,0,45,0,0,0,0.7,0.08,0
0.28767,0,0,0,0,0,0,0,0,0,0,0,0,0.46767,-0.033342,0,0.46889,0,0,0,45,0,0,0,0.72,0.08,0
0.26876,0,0,0,0,0,0,0,0,0,0,0,0,0.47748,-0.033093,0,0.47865,0,0,0,45,0,0,0,0.74,0.08,0
0.24947,0,0,0,0,0,0,0,0,0,0,0,0,0.48675,-0.03171,0,0.4878,0,0,0,45,0,0,0,0.76,0.08,0
0.22982,0,0,0,0,0,0,0,0,0,0,0,0,0.49525,-0.029546,0,0.49615,0,0,0,45,0,0,0,0.78,0.08,0
0.20985,0,0,0,0,0,0,0,0,0,0,0,0,0.50285,-0.026894,0,0.50358,0,0,0,45,0,0,0,0.8,0.08,0
0.1896,0,0,0,0,0,0,0,0,0,0,0,0,0.50951,-0.023974,0,0.51008,0,0,0,45,0,0,0,0.82,0.08,0
0.16909,0,0,0,0,0,0,0,0,0,0,0,0,0.51525,-0.020952,0,0.51568,0,0,0,45,0,0,0,0.84,0.08,0
0.14838,0,0,0,0,0,0,0,0,0,0,0,0,0.52011,-0.017942,0,0.52043,0,0,0,45,0,0,0,0.86,0.08,0
0.12748,0,0,0,0,0,0,0,0,0,0,0,0,0.52415,-0.015019,0,0.52437,0,0,0,45,0,0,0,0.88,0.08,0
0.10644,0,0,0,0,0,0,0,0,0,0,0,0,0.52743,-0.012224,0,0.52758,0,0,0,45,0,0,0,0.9,0.08,0
0.085288,0,0,0,0,0,0,0,0,0,0,0,0,0.53002,-0.0095679,0,0.53011,0,0,0,45,0,0,0,0.92,0.08,0
0.064042,0,0,0,0,0,0,0,0,0,0,0,0,0.53197,-0.0070443,0,0.53202,0,0,0,45,0,0,0,0.94,0.08,0
0.04273,0,0,0,0,0,0,0,0,0,0,0,0,0.53333,-0.0046307,0,0.53335,0,0,0,45,0,0,0,0.96,0.08,0
0.021376,0,0,0,0,0,0,0,0,0,0,0,0,0.53413,-0.0022952,0,0.53413,0,0,0,45,0,0,0,0.98,0.08,0
0,0,0,0,0,0,0,0,0,0,0,0,0,0.53439,-6.5052e-19,0,0.53439,0,0,0,45,0,0,0,1,0.08,0
1,0,0,0,0,0,0,0,0,0,0,0,0,0.54383,-6.0509e-16,0,0.54383,0,0,0,45,0,0,0,0,0.1,0
0.97825,0,0,0,0,0,0,0,0,0,0,0,0,0.5438,0.00051887,0,0.5438,0,0,0,45,0,0,0,0.02,0.1,0
0.9565,0,0,0,0,0,0,0,0,0,0,0,0,0.54369,0.0010565,0,0.54369,0,0,0,45,0,0,0,0.04,0.1,0
0.93475,0,0,0,0,0,0,0,0,0,0,0,0,0.5435,0.0016319,0,0.5435,0,0,0,45,0,0,0,0.06,0.1,0
0.91302,0,0,0,0,0,0,0,0,0,0,0,0,0.54322,0.0022652,0,0.54322,0,0,0,45,0,0,0,0.08,0.1,0
0.89129,0,0,0,0,0,0,0,0,0,0,0,0,0.54284,0.0029775,0,0.54285,0,0,0,45,0,0,0,0.1,0.1,0
0.86959,0,0,0,0,0,0,0,0,0,0,0,0,0.54235,0.0037917,0,0.54236,0,0,0,45,0,0,0,0.12,0.1,0
0.84791,0,0,0,0,0,0,0,0,0,0,0,0,0.54173,0.0047323,0,0.54175,0,0,0,45,0,0,0,0.14,0.1,0
0.82625,0,0,0,0,0,0,0,0,0,0,0,0,0.54094,0.0058262,0,0.54097,0,0,0,45,0,0,0,0.16,0.1,0
0.80463,0,0,0,0,0,0,0,0,0,0,0,0,0.53996,0.0071021,0,0.54,0,0,0,45,0,0,0,0.18,0.1,0
0.78305,0,0,0,0,0,0,0,0,0,0,0,0,0.53874,0.0085906,0,0.53881,0,0,0,45,0,0,0,0.2,0.1,0
0.76153,0,0,0,0,0,0,0,0,0,0,0,0,0.53725,0.010323,0,0.53735,0,0,0,45,0,0,0,0.22,0.1,0
0.74007,0,0,0,0,0,0,0,0,0,0,0,0,0.53541,0.01233,0,0.53556,0,0,0,45,0,0,0,0.24,0.1,0
0.7187,0,0,0,0,0,0,0,0,0,0,0,0,0.53317,0.01464,0,0.53337,0,0,0,45,0,0,0,0.26,0.1,0
0.69742,0,0,0,0,0,0,0,0,0,0,0,0,0.53043,0.017272,0,0.53071,0,0,0,45,0,0,0,0.28,0.1,0
0.67626,0,0,0,0,0,0,0,0,0,0,0,0,0.5271,0.020233,0,0.52749,0,0,0,45,0,0,0,0.3,0.1,0
0.65525,0,0,0,0,0,0,0,0,0,0,0,0,0.52307,0.023506,0,0.5236,0,0,0,45,0,0,0,0.32,0.1,0
0.63442,0,0,0,0,0,0,0,0,0,0,0,0,0.51822,0.027043,0,0.51893,0,0,0,45,0,0,0,0.34,0.1,0
0.61379,0,0,0,0,0,0,0,0,0,0,0,0,0.51243,0.030752,0,0.51336,0,0,0,45,0,0,0,0.36,0.1,0
0.59342,0,0,0,0,0,0,0,0,0,0,0,0,0.5056,0.034489,0,0.50679,0,0,0,45,0,0,0,0.38,0.1,0
0.57335,0,0,0,0,0,0,0,0,0,0,0,0,0.49764,0.038049,0,0.49911,0,0,0,45,0,0,0,0.4,0.1,0
0.55361,0,0,0,0,0,0,0,0,0,0,0,0,0.4885,0.041151,0,0.49025,0,0,0,45,0,0,0,0.42,0.1,0
0.53427,0,0,0,0,0,0,0,0,0,0,0,0,0.4782,0.043425,0,0.4802,0,0,0,45,0,0,0,0.44,0.1,0
0.51536,0,0,0,0,0,0,0,0,0,0,0,0,0.46692,0.044309,0,0.46906,0,0,0,45,0,0,0,0.46,0.1,0
0.49691,0,0,0,0,0,0,0,0,0,0,0,0,0.45515,0.043145,0,0.45722,0,0,0,45,0,0,0,0.48,0.1,0
0.47895,0,0,0,0,0,0,0,0,0,0,0,0,0.44368,0.039356,0,0.44546,0,0,0,45,0,0,0,0.5,0.1,0
0.46142,0,0,0,0,0,0,0,0,0,0,0,0,0.43354,0.032944,0,0.4348,0,0,0,45,0,0,0,0.52,0.1,0
0.44426,0,0,0,0,0,0,0,0,0,0,0,0,0.42557,0.024485,0,0.42627,0,0,0,45,0,0,0,0.54,0.1,0
0.42737,0,0,0,0,0,0,0,0,0,0,0,0,0.42023,0.014909,0,0.42048,0,0,0,45,0,0,0,0.56,0.1,0
0.41064,0,0,0,0,0,0,0,0,0,0,0,0,0.41761,0.0049171,0,0.41762,0,0,0,45,0,0,0,0.58,0.1,0
0.39397,0,0,0,0,0,0,0,0,0,0,0,0,0.41763,-0.0051399,0,0.41764,0,0,0,45,0,0,0,0.6,0.1,0
0.37723,0,0,0,0,0,0,0,0,0,0,0,0,0.42031,-0.015127,0,0.42057,0,0,0,45,0,0,0,0.62,0.1,0
0.36034,0,0,0,0,0,0,0,0,0,0,0,0,0.4257,-0.024692,0,0.42641,0,0,0,45,0,0,0,0.64,0.1,0
0.34318,0,0,0,0,0,0,0,0,0,0,0,0,0.43373,-0.033134,0,0.435,0,0,0,45,0,0,0,0.66,0.1,0
0.32564,0,0,0,0,0,0,0,0,0,0,0,0,0.44392,-0.039522,0,0.44571,0,0,0,45,0,0,0,0.68,0.1,0
0.30766,0,0,0,0,0,0,0,0,0,0,0,0,0.45543,-0.043278,0,0.45753,0,0,0,45,0,0,0,0.7,0.1,0
0.28921,0,0,0,0,0,0,0,0,0,0,0,0,0.46726,-0.044398,0,0.46941,0,0,0,45,0,0,0,0.72,0.1,0
0.27028,0,0,0,0,0,0,0,0,0,0,0,0,0.47859,-0.043452,0,0.48059,0,0,0,45,0,0,0,0.74,0.1,0
0.25092,0,0,0,0,0,0,0,0,0,0,0,0,0.48894,-0.041093,0,0.49068,0,0,0,45,0,0,0,0.76,0.1,0
0.23117,0,0,0,0,0,0,0,0,0,0,0,0,0.49812,-0.037872,0,0.49957,0,0,0,45,0,0,0,0.78,0.1,0
0.21107,0,0,0,0,0,0,0,0,0,0,0,0,0.50611,-0.034149,0,0.50727,0,0,0,45,0,0,0,0.8,0.1,0
0.19068,0,0,0,0,0,0,0,0,0,0,0,0,0.51295,-0.030191,0,0.51384,0,0,0,45,0,0,0,0.82,0.1,0
0.17003,0,0,0,0,0,0,0,0,0,0,0,0,0.51871,-0.026193,0,0.51938,0,0,0,45,0,0,0,0.84,0.1,0
0.14918,0,0,0,0,0,0,0,0,0,0,0,0,0.52349,-0.022287,0,0.52397,0,0,0,45,0,0,0,0.86,0.1,0
0.12816,0,0,0,0,0,0,0,0,0,0,0,0,0.52739,-0.018555,0,0.52772,0,0,0,45,0,0,0,0.88,0.1,0
0.10699,0,0,0,0,0,0,0,0,0,0,0,0,0.53051,-0.015032,0,0.53072,0,0,0,45,0,0,0,0.9,0.1,0
0.085715,0,0,0,0,0,0,0,0,0,0,0,0,0.53293,-0.011723,0,0.53306,0,0,0,45,0,0,0,0.92,0.1,0
0.064356,0,0,0,0,0,0,0,0,0,0,0,0,0.53473,-0.0086071,0,0.5348,0,0,0,45,0,0,0,0.94,0.1,0
0.042937,0,0,0,0,0,0,0,0,0,0,0,0,0.53598,-0.005647,0,0.53601,0,0,0,45,0,0,0,0.96,0.1,0
0.021478,0,0,0,0,0,0,0,0,0,0,0,0,0.53671,-0.0027956,0,0.53672,0,0,0,45,0,0,0,0.98,0.1,0
0,0,0,0,0,0,0,0,0,0,0,0,0,0.53695,1.5179e-18,0,0.53695,0,0,0,45,0,0,0,1,0.1,0
1,0,0,0,0,0,0,0,0,0,0,0,0,0.54439,1.1984e-15,0,0.54439,0,0,0,45,0,0,0,0,0.12,0
0.97822,0,0,0,0,0,0,0,0,0,0,0,0,0.54436,0.00058075,0,0.54436,0,0,0,45,0,0,0,0.02,0.12,0
0.95645,0,0,0,0,0,0,0,0,0,0,0,0,0.54428,0.0011831,0,0.54429,0,0,0,45,0,0,0,0.04,0.12,0
0.93468,0,0,0,0,0,0,0,0,0,0,0,0,0.54414,0.0018291,0,0.54415,0,0,0,45,0,0,0,0.06,0.12,0
0.91292,0,0,0,0,0,0,0,0,0,0,0,0,0.54394,0.0025419,0,0.54395,0,0,0,45,0,0,0,0.08,0.12,0
0.89117,0,0,0,0,0,0,0,0,0,0,0,0,0.54366,0.0033463,0,0.54367,0,0,0,45,0,0,0,0.1,0.12,0
0.86943,0,0,0,0,0,0,0,0,0,0,0,0,0.5433,0.0042691,0,0.54331,0,0,0,45,0,0,0,0.12,0.12,0
0.8477,0,0,0,0,0,0,0,0,0,0,0,0,0.54282,0.0053398,0,0.54285,0,0,0,45,0,0,0,0.14,0.12,0
0.826,0,0,0,0,0,0,0,0,0,0,0,0,0.54222,0.0065907,0,0.54226,0,0,0,45,0,0,0,0.16,0.12,0
0.80432,0,0,0,0,0,0,0,0,0,0,0,0,0.54145,0.0080574,0,0.54151,0,0,0,45,0,0,0,0.18,0.12,0
0.78268,0,0,0,0,0,0,0,0,0,0,0,0,0.54049,0.0097787,0,0.54058,0,0,0,45,0,0,0,0.2,0.12,0
0.76109,0,0,0,0,0,0,0,0,0,0,0,0,0.53929,0.011796,0,0.53941,0,0,0,45,0,0,0,0.22,0.12,0
0.73954,0,0,0,0,0,0,0,0,0,0,0,0,0.53778,0.014153,0,0.53796,0,0,0,45,0,0,0,0.24,0.12,0
0.71806,0,0,0,0,0,0,0,0,0,0,0,0,0.53589,0.016893,0,0.53615,0,0,0,45,0,0,0,0.26,0.12,0
0.69667,0,0,0,0,0,0,0,0,0,0,0,0,0.53352,0.020051,0,0.5339,0,0,0,45,0,0,0,0.28,0.12,0
0.67538,0,0,0,0,0,0,0,0,0,0,0,0,0.53057,0.023655,0,0.53109,0,0,0,45,0,0,0,0.3,0.12,0
0.65422,0,0,0,0,0,0,0,0,0,0,0,0,0.52688,0.027706,0,0.52761,0,0,0,45,0,0,0,0.32,0.12,0
0.63323,0,0,0,0,0,0,0,0,0,0,0,0,0.52231,0.032168,0,0.5233,0,0,0,45,0,0,0,0.34,0.12,0
0.61244,0,0,0,0,0,0,0,0,0,0,0,0,0.51668,0.036951,0,0.518,0,0,0,45,0,0,0,0.36,0.12,0
0.5919,0,0,0,0,0,0,0,0,0,0,0,0,0.50982,0.041899,0,0.51155,0,0,0,45,0,0,0,0.38,0.12,0
0.57166,0,0,0,0,0,0,0,0,0,0,0,0,0.50157,0.04678,0,0.50376,0,0,0,45,0,0,0,0.4,0.12,0
0.55177,0,0,0,0,0,0,0,0,0,0,0,0,0.49179,0.051295,0,0.49449,0,0,0,45,0,0,0,0.42,0.12,0
0.53231,0,0,0,0,0,0,0,0,0,0,0,0,0.48032,0.055013,0,0.4835,0,0,0,45,0,0,0,0.44,0.12,0
0.51335,0,0,0,0,0,0,0,0,0,0,0,0,0.46711,0.057434,0,0.47068,0,0,0,45,0,0,0,0.46,0.12,0
0.49494,0,0,0,0,0,0,0,0,0,0,0,0,0.45255,0.057054,0,0.4562,0,0,0,45,0,0,0,0.48,0.12,0
0.47714,0,0,0,0,0,0,0,0,0,0,0,0,0.4379,0.052694,0,0.44111,0,0,0,45,0,0,0,0.5,0.12,0
0.45991,0,0,0,0,0,0,0,0,0,0,0,0,0.42493,0.043677,0,0.42719,0,0,0,45,0,0,0,0.52,0.12,0
0.44315,0,0,0,0,0,0,0,0,0,0,0,0,0.41515,0.031773,0,0.41635,0,0,0,45,0,0,0,0.54,0.12,0
0.4267,0,0,0,0,0,0,0,0,0,0,0,0,0.40906,0.018793,0,0.40946,0,0,0,45,0,0,0,0.56,0.12,0
0.41042,0,0,0,0,0,0,0,0,0,0,0,0,0.40629,0.0061078,0,0.4063,0,0,0,45,0,0,0,0.58,0.12,0
0.3942,0,0,0,0,0,0,0,0,0,0,0,0,0.40632,-0.0063873,0,0.40633,0,0,0,45,0,0,0,0.6,0.12,0
0.37792,0,0,0,0,0,0,0,0,0,0,0,0,0.40915,-0.019067,0,0.40957,0,0,0,45,0,0,0,0.62,0.12,0
0.36146,0,0,0,0,0,0,0,0,0,0,0,0,0.4153,-0.032037,0,0.41652,0,0,0,45,0,0,0,0.64,0.12,0
0.34469,0,0,0,0,0,0,0,0,0,0,0,0,0.42514,-0.043924,0,0.42742,0,0,0,45,0,0,0,0.66,0.12,0
0.32745,0,0,0,0,0,0,0,0,0,0,0,0,0.43817,-0.052916,0,0.4414,0,0,0,45,0,0,0,0.68,0.12,0
0.30964,0,0,0,0,0,0,0,0,0,0,0,0,0.45288,-0.057243,0,0.45655,0,0,0,45,0,0,0,0.7,0.12,0
0.29122,0,0,0,0,0,0,0,0,0,0,0,0,0.4675,-0.05758,0,0.47109,0,0,0,45,0,0,0,0.72,0.12,0
0.27224,0,0,0,0,0,0,0,0,0,0,0,0,0.48078,-0.055101,0,0.48397,0,0,0,45,0,0,0,0.74,0.12,0
0.25276,0,0,0,0,0,0,0,0,0,0,0,0,0.49233,-0.051301,0,0.49502,0,0,0,45,0,0,0,0.76,0.12,0
0.23285,0,0,0,0,0,0,0,0,0,0,0,0,0.50219,-0.046667,0,0.50437,0,0,0,45,0,0,0,0.78,0.12,0
0.21258,0,0,0,0,0,0,0,0,0,0,0,0,0.51053,-0.041616,0,0.51223,0,0,0,45,0,0,0,0.8,0.12,0
0.19201,0,0,0,0,0,0,0,0,0,0,0,0,0.51747,-0.036429,0,0.51875,0,0,0,45,0,0,0,0.82,0.12,0
0.17119,0,0,0,0,0,0,0,0,0,0,0,0,0.52316,-0.031324,0,0.5241,0,0,0,45,0,0,0,0.84,0.12,0
0.15016,0,0,0,0,0,0,0,0,0,0,0,0,0.52775,-0.026445,0,0.52841,0,0,0,45,0,0,0,0.86,0.12,0
0.12897,0,0,0,0,0,0,0,0,0,0,0,0,0.53141,-0.021869,0,0.53186,0,0,0,45,0,0,0,0.88,0.12,0
0.10765,0,0,0,0,0,0,0,0,0,0,0,0,0.53427,-0.017619,0,0.53456,0,0,0,45,0,0,0,0.9,0.12,0
0.086226,0,0,0,0,0,0,0,0,0,0,0,0,0.53645,-0.01368,0,0.53662,0,0,0,45,0,0,0,0.92,0.12,0
0.064731,0,0,0,0,0,0,0,0,0,0,0,0,0.53805,-0.010011,0,0.53814,0,0,0,45,0,0,0,0.94,0.12,0
0.043182,0,0,0,0,0,0,0,0,0,0,0,0,0.53914,-0.0065526,0,0.53918,0,0,0,45,0,0,0,0.96,0.12,0
0.021599,0,0,0,0,0,0,0,0,0,0,0,0,0.53978,-0.0032395,0,0.53978,0,0,0,45,0,0,0,0.98,0.12,0
0,0,0,0,0,0,0,0,0,0,0,0,0,0.53999,-1.7347e-18,0,0.53998,0,0,0,45,0,0,0,1,0.12,0
1,0,0,0,0,0,0,0,0,0,0,0,0,0.545,9.174e-16,0,0.545,0,0,0,45,0,0,0,0,0.14,0
0.9782,0,0,0,0,0,0,0,0,0,0,0,0,0.54498,0.00062124,0,0.54498,0,0,0,45,0,0,0,0.02,0.14,0
0.9564,0,0,0,0,0,0,0,0,0,0,0,0,0.54494,0.0012664,0,0.54494,0,0,0,45,0,0,0,0.04,0.14,0
0.93461,0,0,0,0,0,0,0,0,0,0,0,0,0.54486,0.0019599,0,0.54486,0,0,0,45,0,0,0,0.06,0.14,0
0.91281,0,0,0,0,0,0,0,0,0,0,0,0,0.54474,0.0027277,0,0.54474,0,0,0,45,0,0,0,0.08,0.14,0
0.89103,0,0,0,0,0,0,0,0,0,0,0,0,0.54457,0.0035976,0,0.54458,0,0,0,45,0,0,0,0.1,0.14,0
0.86925,0,0,0,0,0,0,0,0,0,0,0,0,0.54434,0.0045998,0,0.54436,0,0,0,45,0,0,0,0.12,0.14,0
0.84748,0,0,0,0,0,0,0,0,0,0,0,0,0.54405,0.0057682,0,0.54408,0,0,0,45,0,0,0,0.14,0.14,0
0.82572,0,0,0,0,0,0,0,0,0,0,0,0,0.54365,0.0071405,0,0.5437,0,0,0,45,0,0,0,0.16,0.14,0
0.80399,0,0,0,0,0,0,0,0,0,0,0,0,0.54314,0.008759,0,0.54321,0,0,0,45,0,0,0,0.18,0.14,0
0.78227,0,0,0,0,0,0,0,0,0,0,0,0,0.54248,0.010671,0,0.54259,0,0,0,45,0,0,0,0.2,0.14,0
0.76059,0,0,0,0,0,0,0,0,0,0,0,0,0.54162,0.01293,0,0.54178,0,0,0,45,0,0,0,0.22,0.14,0
0.73894,0,0,0,0,0,0,0,0,0,0,0,0,0.54051,0.015593,0,0.54073,0,0,0,45,0,0,0,0.24,0.14,0
0.71735,0,0,0,0,0,0,0,0,0,0,0,0,0.53907,0.018722,0,0.53939,0,0,0,45,0,0,0,0.26,0.14,0
0.69582,0,0,0,0,0,0,0,0,0,0,0,0,0.53719,0.022379,0,0.53766,0,0,0,45,0,0,0,0.28,0.14,0
0.67437,0,0,0,0,0,0,0,0,0,0,0,0,0.53475,0.026618,0,0.53541,0,0,0,45,0,0,0,0.3,0.14,0
0.65304,0,0,0,0,0,0,0,0,0,0,0,0,0.53158,0.031476,0,0.53251,0,0,0,45,0,0,0,0.32,0.14,0
0.63184,0,0,0,0,0,0,0,0,0,0,0,0,0.52746,0.036947,0,0.52875,0,0,0,45,0,0,0,0.34,0.14,0
0.61084,0,0,0,0,0,0,0,0,0,0,0,0,0.52216,0.04296,0,0.52393,0,0,0,45,0,0,0,0.36,0.14,0
0.59007,0,0,0,0,0,0,0,0,0,0,0,0,0.51543,0.049348,0,0.51779,0,0,0,45,0,0,0,0.38,0.14,0
0.56961,0,0,0,0,0,0,0,0,0,0,0,0,0.50704,0.055862,0,0.51012,0,0,0,45,0,0,0,0.4,0.14,0
0.54951,0,0,0,0,0,0,0,0,0,0,0,0,0.49673,0.062143,0,0.50063,0,0,0,45,0,0,0,0.42,0.14,0
0.52987,0,0,0,0,0,0,0,0,0,0,0,0,0.48434,0.067938,0,0.48912,0,0,0,45,0,0,0,0.44,0.14,0
0.51076,0,0,0,0,0,0,0,0,0,0,0,0,0.46896,0.072407,0,0.47458,0,0,0,45,0,0,0,0.46,0.14,0
0.49235,0,0,0,0,0,0,0,0,0,0,0,0,0.4504,0.076182,0,0.45694,0,0,0,45,0,0,0,0.48,0.14,0
0.47473,0,0,0,0,0,0,0,0,0,0,0,0,0.43031,0.070901,0,0.43622,0,0,0,45,0,0,0,0.5,0.14,0
0.45793,0,0,0,0,0,0,0,0,0,0,0,0,0.41262,0.058291,0,0.41675,0,0,0,45,0,0,0,0.52,0.14,0
0.44172,0,0,0,0,0,0,0,0,0,0,0,0,0.40068,0.038976,0,0.40251,0,0,0,45,0,0,0,0.54,0.14,0
0.42587,0,0,0,0,0,0,0,0,0,0,0,0,0.39456,0.022113,0,0.39513,0,0,0,45,0,0,0,0.56,0.14,0
0.41015,0,0,0,0,0,0,0,0,0,0,0,0,0.39243,0.0070606,0,0.39244,0,0,0,45,0,0,0,0.58,0.14,0
0.39448,0,0,0,0,0,0,0,0,0,0,0,0,0.39246,-0.0074023,0,0.39248,0,0,0,45,0,0,0,0.6,0.14,0
0.37876,0,0,0,0,0,0,0,0,0,0,0,0,0.39466,-0.022449,0,0.39524,0,0,0,45,0,0,0,0.62,0.14,0
0.3629,0,0,0,0,0,0,0,0,0,0,0,0,0.40084,-0.039301,0,0.40271,0,0,0,45,0,0,0,0.64,0.14,0
0.34669,0,0,0,0,0,0,0,0,0,0,0,0,0.41285,-0.058601,0,0.41702,0,0,0,45,0,0,0,0.66,0.14,0
0.32988,0,0,0,0,0,0,0,0,0,0,0,0,0.4306,-0.071187,0,0.43656,0,0,0,45,0,0,0,0.68,0.14,0
0.31224,0,0,0,0,0,0,0,0,0,0,0,0,0.45077,-0.076437,0,0.45734,0,0,0,45,0,0,0,0.7,0.14,0
0.29381,0,0,0,0,0,0,0,0,0,0,0,0,0.4694,-0.072623,0,0.47505,0,0,0,45,0,0,0,0.72,0.14,0
0.27469,0,0,0,0,0,0,0,0,0,0,0,0,0.48487,-0.068109,0,0.48967,0,0,0,45,0,0,0,0.74,0.14,0
0.25503,0,0,0,0,0,0,0,0,0,0,0,0,0.49737,-0.06225,0,0.50128,0,0,0,45,0,0,0,0.76,0.14,0
0.2349,0,0,0,0,0,0,0,0,0,0,0,0,0.5078,-0.055867,0,0.51088,0,0,0,45,0,0,0,0.78,0.14,0
0.2144,0,0,0,0,0,0,0,0,0,0,0,0,0.51635,-0.049191,0,0.51869,0,0,0,45,0,0,0,0.8,0.14,0
0.19359,0,0,0,0,0,0,0,0,0,0,0,0,0.52324,-0.042561,0,0.52497,0,0,0,45,0,0,0,0.82,0.14,0
0.17254,0,0,0,0,0,0,0,0,0,0,0,0,0.5287,-0.036207,0,0.52993,0,0,0,45,0,0,0,0.84,0.14,0
0.1513,0,0,0,0,0,0,0,0,0,0,0,0,0.53295,-0.030281,0,0.53381,0,0,0,45,0,0,0,0.86,0.14,0
0.1299,0,0,0,0,0,0,0,0,0,0,0,0,0.53622,-0.024844,0,0.53679,0,0,0,45,0,0,0,0.88,0.14,0
0.1084,0,0,0,0,0,0,0,0,0,0,0,0,0.5387,-0.019887,0,0.53906,0,0,0,45,0,0,0,0.9,0.14,0
0.08681,0,0,0,0,0,0,0,0,0,0,0,0,0.54054,-0.015364,0,0.54075,0,0,0,45,0,0,0,0.92,0.14,0
0.065157,0,0,0,0,0,0,0,0,0,0,0,0,0.54186,-0.0112,0,0.54197,0,0,0,45,0,0,0,0.94,0.14,0
0.043461,0,0,0,0,0,0,0,0,0,0,0,0,0.54275,-0.0073118,0,0.5428,0,0,0,45,0,0,0,0.96,0.14,0
0.021737,0,0,0,0,0,0,0,0,0,0,0,0,0.54326,-0.0036093,0,0.54327,0,0,0,45,0,0,0,0.98,0.14,0
0,0,0,0,0,0,0,0,0,0,0,0,0,0.54343,1.236e-17,0,0.54343,0,0,0,45,0,0,0,1,0.14,0
1,0,0,0,0,0,0,0,0,0,0,0,0,0.54563,-1.2374e-15,0,0.54563,0,0,0,45,0,0,0,0,0.16,0
0.97818,0,0,0,0,0,0,0,0,0,0,0,0,0.54563,0.00063804,0,0.54563,0,0,0,45,0,0,0,0.02,0.16,0
0.95635,0,0,0,0,0,0,0,0,0,0,0,0,0.54562,0.0013017,0,0.54562,0,0,0,45,0,0,0,0.04,0.16,0
0.93453,0,0,0,0,0,0,0,0,0,0,0,0,0.54561,0.0020172,0,0.54561,0,0,0,45,0,0,0,0.06,0.16,0
0.9127,0,0,0,0,0,0,0,0,0,0,0,0,0.54558,0.0028124,0,0.54559,0,0,0,45,0,0,0,0.08,0.16,0
0.89088,0,0,0,0,0,0,0,0,0,0,0,0,0.54553,0.0037175,0,0.54555,0,0,0,45,0,0,0,0.1,0.16,0
0.86906,0,0,0,0,0,0,0,0,0,0,0,0,0.54547,0.0047656,0,0.54549,0,0,0,45,0,0,0,0.12,0.16,0
0.84724,0,0,0,0,0,0,0,0,0,0,0,0,0.54536,0.0059943,0,0.54539,0,0,0,45,0,0,0,0.14,0.16,0
0.82543,0,0,0,0,0,0,0,0,0,0,0,0,0.54521,0.0074458,0,0.54526,0,0,0,45,0,0,0,0.16,0.16,0
0.80363,0,0,0,0,0,0,0,0,0,0,0,0,0.54498,0.0091687,0,0.54506,0,0,0,45,0,0,0,0.18,0.16,0
0.78183,0,0,0,0,0,0,0,0,0,0,0,0,0.54466,0.011219,0,0.54478,0,0,0,45,0,0,0,0.2,0.16,0
0.76005,0,0,0,0,0,0,0,0,0,0,0,0,0.54421,0.013661,0,0.54438,0,0,0,45,0,0,0,0.22,0.16,0
0.73829,0,0,0,0,0,0,0,0,0,0,0,0,0.54357,0.016567,0,0.54382,0,0,0,45,0,0,0,0.24,0.16,0
0.71657,0,0,0,0,0,0,0,0,0,0,0,0,0.54267,0.020022,0,0.54304,0,0,0,45,0,0,0,0.26,0.16,0
0.69488,0,0,0,0,0,0,0,0,0,0,0,0,0.54142,0.024118,0,0.54195,0,0,0,45,0,0,0,0.28,0.16,0
0.67325,0,0,0,0,0,0,0,0,0,0,0,0,0.53966,0.02895,0,0.54044,0,0,0,45,0,0,0,0.3,0.16,0
0.65171,0,0,0,0,0,0,0,0,0,0,0,0,0.53721,0.03461,0,0.53832,0,0,0,45,0,0,0,0.32,0.16,0
0.63028,0,0,0,0,0,0,0,0,0,0,0,0,0.53379,0.041153,0,0.53537,0,0,0,45,0,0,0,0.34,0.16,0
0.609,0,0,0,0,0,0,0,0,0,0,0,0,0.52908,0.048554,0,0.5313,0,0,0,45,0,0,0,0.36,0.16,0
0.58795,0,0,0,0,0,0,0,0,0,0,0,0,0.52272,0.05666,0,0.52578,0,0,0,45,0,0,0,0.38,0.16,0
0.56719,0,0,0,0,0,0,0,0,0,0,0,0,0.51436,0.065122,0,0.51848,0,0,0,45,0,0,0,0.4,0.16,0
0.5468,0,0,0,0,0,0,0,0,0,0,0,0,0.50387,0.073649,0,0.50925,0,0,0,45,0,0,0,0.42,0.16,0
0.52688,0,0,0,0,0,0,0,0,0,0,0,0,0.49058,0.081487,0,0.49734,0,0,0,45,0,0,0,0.44,0.16,0
0.50755,0,0,0,0,0,0,0,0,0,0,0,0,0.47535,0.090074,0,0.4839,0,0,0,45,0,0,0,0.46,0.16,0
0.48885,0,0,0,0,0,0,0,0,0,0,0,0,0.45105,0.094077,0,0.4607,0,0,0,45,0,0,0,0.48,0.16,0
0.47147,0,0,0,0,0,0,0,0,0,0,0,0,0.42001,0.11482,0,0.43622,0,0,0,45,0,0,0,0.5,0.16,0
0.45525,0,0,0,0,0,0,0,0,0,0,0,0,0.393,0.07042,0,0.39892,0,0,0,45,0,0,0,0.52,0.16,0
0.44003,0,0,0,0,0,0,0,0,0,0,0,0,0.37897,0.043068,0,0.38129,0,0,0,45,0,0,0,0.54,0.16,0
0.42493,0,0,0,0,0,0,0,0,0,0,0,0,0.37715,0.023671,0,0.37782,0,0,0,45,0,0,0,0.56,0.16,0
0.40986,0,0,0,0,0,0,0,0,0,0,0,0,0.37677,0.0074543,0,0.37679,0,0,0,45,0,0,0,0.58,0.16,0
0.39479,0,0,0,0,0,0,0,0,0,0,0,0,0.37681,-0.0078649,0,0.37683,0,0,0,45,0,0,0,0.6,0.16,0
0.37971,0,0,0,0,0,0,0,0,0,0,0,0,0.37725,-0.024073,0,0.37795,0,0,0,45,0,0,0,0.62,0.16,0
0.36461,0,0,0,0,0,0,0,0,0,0,0,0,0.37914,-0.043457,0,0.3815,0,0,0,45,0,0,0,0.64,0.16,0
0.34938,0,0,0,0,0,0,0,0,0,0,0,0,0.39325,-0.0708,0,0.39923,0,0,0,45,0,0,0,0.66,0.16,0
0.33315,0,0,0,0,0,0,0,0,0,0,0,0,0.42033,-0.11519,0,0.43663,0,0,0,45,0,0,0,0.68,0.16,0
0.31576,0,0,0,0,0,0,0,0,0,0,0,0,0.45145,-0.09439,0,0.46116,0,0,0,45,0,0,0,0.7,0.16,0
0.29703,0,0,0,0,0,0,0,0,0,0,0,0,0.47583,-0.090366,0,0.48442,0,0,0,45,0,0,0,0.72,0.16,0
0.27769,0,0,0,0,0,0,0,0,0,0,0,0,0.49116,-0.081759,0,0.49795,0,0,0,45,0,0,0,0.74,0.16,0
0.25774,0,0,0,0,0,0,0,0,0,0,0,0,0.50458,-0.073894,0,0.50998,0,0,0,45,0,0,0,0.76,0.16,0
0.23732,0,0,0,0,0,0,0,0,0,0,0,0,0.51525,-0.065303,0,0.51938,0,0,0,45,0,0,0,0.78,0.16,0
0.21652,0,0,0,0,0,0,0,0,0,0,0,0,0.52383,-0.05671,0,0.5269,0,0,0,45,0,0,0,0.8,0.16,0
0.19542,0,0,0,0,0,0,0,0,0,0,0,0,0.53045,-0.048378,0,0.53265,0,0,0,45,0,0,0,0.82,0.16,0
0.17408,0,0,0,0,0,0,0,0,0,0,0,0,0.53544,-0.040631,0,0.53697,0,0,0,45,0,0,0,0.84,0.16,0
0.15258,0,0,0,0,0,0,0,0,0,0,0,0,0.53912,-0.033607,0,0.54016,0,0,0,45,0,0,0,0.86,0.16,0
0.13095,0,0,0,0,0,0,0,0,0,0,0,0,0.5418,-0.027324,0,0.54249,0,0,0,45,0,0,0,0.88,0.16,0
0.10924,0,0,0,0,0,0,0,0,0,0,0,0,0.54375,-0.021716,0,0.54418,0,0,0,45,0,0,0,0.9,0.16,0
0.087455,0,0,0,0,0,0,0,0,0,0,0,0,0.54513,-0.016684,0,0.54539,0,0,0,45,0,0,0,0.92,0.16,0
0.065627,0,0,0,0,0,0,0,0,0,0,0,0,0.5461,-0.012112,0,0.54623,0,0,0,45,0,0,0,0.94,0.16,0
0.043767,0,0,0,0,0,0,0,0,0,0,0,0,0.54673,-0.0078848,0,0.54678,0,0,0,45,0,0,0,0.96,0.16,0
0.021888,0,0,0,0,0,0,0,0,0,0,0,0,0.54709,-0.0038856,0,0.5471,0,0,0,45,0,0,0,0.98,0.16,0
0,0,0,0,0,0,0,0,0,0,0,0,0,0.5472,-4.3368e-19,0,0.5472,0,0,0,45,0,0,0,1,0.16,0
1,0,0,0,0,0,0,0,0,0,0,0,0,0.54627,-2.2136e-15,0,0.54627,0,0,0,45,0,0,0,0,0.18,0
0.97815,0,0,0,0,0,0,0,0,0,0,0,0,0.54628,0.00062952,0,0.54628,0,0,0,45,0,0,0,0.02,0.18,0
0.9563,0,0,0,0,0,0,0,0,0,0,0,0,0.54631,0.0012856,0,0.54632,0,0,0,45,0,0,0,0.04,0.18,0
0.93444,0,0,0,0,0,0,0,0,0,0,0,0,0.54637,0.0019955,0,0.54637,0,0,0,45,0,0,0,0.06,0.18,0
0.91259,0,0,0,0,0,0,0,0,0,0,0,0,0.54644,0.0027883,0,0.54644,0,0,0,45,0,0,0,0.08,0.18,0
0.89073,0,0,0,0,0,0,0,0,0,0,0,0,0.54652,0.0036956,0,0.54654,0,0,0,45,0,0,0,0.1,0.18,0
0.86887,0,0,0,0,0,0,0,0,0,0,0,0,0.54662,0.0047527,0,0.54664,0,0,0,45,0,0,0,0.12,0.18,0
0.847,0,0,0,0,0,0,0,0,0,0,0,0,0.54673,0.0059996,0,0.54676,0,0,0,45,0,0,0,0.14,0.18,0
0.82513,0,0,0,0,0,0,0,0,0,0,0,0,0.54683,0.0074821,0,0.54688,0,0,0,45,0,0,0,0.16,0.18,0
0.80325,0,0,0,0,0,0,0,0,0,0,0,0,0.54692,0.009254,0,0.547,0,0,0,45,0,0,0,0.18,0.18,0
0.78138,0,0,0,0,0,0,0,0,0,0,0,0,0.54697,0.011378,0,0.54709,0,0,0,45,0,0,0,0.2,0.18,0
0.7595,0,0,0,0,0,0,0,0,0,0,0,0,0.54697,0.013929,0,0.54715,0,0,0,45,0,0,0,0.22,0.18,0
0.73762,0,0,0,0,0,0,0,0,0,0,0,0,0.54687,0.016996,0,0.54714,0,0,0,45,0,0,0,0.24,0.18,0
0.71574,0,0,0,0,0,0,0,0,0,0,0,0,0.54662,0.020684,0,0.54701,0,0,0,45,0,0,0,0.26,0.18,0
0.69389,0,0,0,0,0,0,0,0,0,0,0,0,0.54612,0.025119,0,0.5467,0,0,0,45,0,0,0,0.28,0.18,0
0.67205,0,0,0,0,0,0,0,0,0,0,0,0,0.54525,0.030447,0,0.54609,0,0,0,45,0,0,0,0.3,0.18,0
0.65027,0,0,0,0,0,0,0,0,0,0,0,0,0.54378,0.036836,0,0.54502,0,0,0,45,0,0,0,0.32,0.18,0
0.62855,0,0,0,0,0,0,0,0,0,0,0,0,0.54141,0.044451,0,0.54322,0,0,0,45,0,0,0,0.34,0.18,0
0.60696,0,0,0,0,0,0,0,0,0,0,0,0,0.53767,0.053393,0,0.5403,0,0,0,45,0,0,0,0.36,0.18,0
0.58554,0,0,0,0,0,0,0,0,0,0,0,0,0.532,0.06352,0,0.53577,0,0,0,45,0,0,0,0.38,0.18,0
0.56439,0,0,0,0,0,0,0,0,0,0,0,0,0.52403,0.074517,0,0.5293,0,0,0,45,0,0,0,0.4,0.18,0
0.54362,0,0,0,0,0,0,0,0,0,0,0,0,0.5131,0.085275,0,0.52015,0,0,0,45,0,0,0,0.42,0.18,0
0.52335,0,0,0,0,0,0,0,0,0,0,0,0,0.50077,0.096851,0,0.5101,0,0,0,45,0,0,0,0.44,0.18,0
0.50356,0,0,0,0,0,0,0,0,0,0,0,0,0.48155,0.10355,0,0.49248,0,0,0,45,0,0,0,0.46,0.18,0
0.48482,0,0,0,0,0,0,0,0,0,0,0,0,0.47514,0.1281,0,0.49209,0,0,0,45,0,0,0,0.48,0.18,0
0.46554,0,0,0,0,0,0,0,0,0,0,0,0,0.54721,0.10192,0,0.55888,0,0,0,45,0,0,0,0.5,0.18,0
0.45229,0,0,0,0,0,0,0,0,0,0,0,0,0.51131,0.064213,0,0.51594,0,0,0,45,0,0,0,0.52,0.18,0
0.43828,0,0,0,0,0,0,0,0,0,0,0,0,0.5309,0.039684,0,0.5326,0,0,0,45,0,0,0,0.54,0.18,0
0.42398,0,0,0,0,0,0,0,0,0,0,0,0,0.53842,0.021897,0,0.5389,0,0,0,45,0,0,0,0.56,0.18,0
0.40956,0,0,0,0,0,0,0,0,0,0,0,0,0.54134,0.0068751,0,0.54135,0,0,0,45,0,0,0,0.58,0.18,0
0.3951,0,0,0,0,0,0,0,0,0,0,0,0,0.5414,-0.0073857,0,0.54142,0,0,0,45,0,0,0,0.6,0.18,0
0.38068,0,0,0,0,0,0,0,0,0,0,0,0,0.5386,-0.02239,0,0.5391,0,0,0,45,0,0,0,0.62,0.18,0
0.36638,0,0,0,0,0,0,0,0,0,0,0,0,0.53117,-0.04015,0,0.53292,0,0,0,45,0,0,0,0.64,0.18,0
0.35235,0,0,0,0,0,0,0,0,0,0,0,0,0.51167,-0.064654,0,0.51636,0,0,0,45,0,0,0,0.66,0.18,0
0.33909,0,0,0,0,0,0,0,0,0,0,0,0,0.54768,-0.10238,0,0.55943,0,0,0,45,0,0,0,0.68,0.18,0
0.31979,0,0,0,0,0,0,0,0,0,0,0,0,0.47559,-0.12847,0,0.49262,0,0,0,45,0,0,0,0.7,0.18,0
0.30104,0,0,0,0,0,0,0,0,0,0,0,0,0.48203,-0.10391,0,0.49302,0,0,0,45,0,0,0,0.72,0.18,0
0.28123,0,0,0,0,0,0,0,0,0,0,0,0,0.50134,-0.097232,0,0.51074,0,0,0,45,0,0,0,0.74,0.18,0
0.26094,0,0,0,0,0,0,0,0,0,0,0,0,0.51383,-0.085691,0,0.52094,0,0,0,45,0,0,0,0.76,0.18,0
0.24013,0,0,0,0,0,0,0,0,0,0,0,0,0.52499,-0.074942,0,0.53031,0,0,0,45,0,0,0,0.78,0.18,0
0.21894,0,0,0,0,0,0,0,0,0,0,0,0,0.53327,-0.063877,0,0.53708,0,0,0,45,0,0,0,0.8,0.18,0
0.19746,0,0,0,0,0,0,0,0,0,0,0,0,0.53932,-0.053562,0,0.54196,0,0,0,45,0,0,0,0.82,0.18,0
0.17579,0,0,0,0,0,0,0,0,0,0,0,0,0.54347,-0.044282,0,0.54526,0,0,0,45,0,0,0,0.84,0.18,0
0.15399,0,0,0,0,0,0,0,0,0,0,0,0,0.54626,-0.036169,0,0.54744,0,0,0,45,0,0,0,0.86,0.18,0
0.13209,0,0,0,0,0,0,0,0,0,0,0,0,0.54811,-0.029119,0,0.54887,0,0,0,45,0,0,0,0.88,0.18,0
0.11014,0,0,0,0,0,0,0,0,0,0,0,0,0.54934,-0.022967,0,0.54981,0,0,0,45,0,0,0,0.9,0.18,0
0.088145,0,0,0,0,0,0,0,0,0,0,0,0,0.55014,-0.017542,0,0.55042,0,0,0,45,0,0,0,0.92,0.18,0
0.066126,0,0,0,0,0,0,0,0,0,0,0,0,0.55066,-0.01268,0,0.5508,0,0,0,45,0,0,0,0.94,0.18,0
0.044092,0,0,0,0,0,0,0,0,0,0,0,0,0.55098,-0.0082302,0,0.55104,0,0,0,45,0,0,0,0.96,0.18,0
0.022048,0,0,0,0,0,0,0,0,0,0,0,0,0.55115,-0.0040488,0,0.55116,0,0,0,45,0,0,0,0.98,0.18,0
0,0,0,0,0,0,0,0,0,0,0,0,0,0.5512,-2.1034e-17,0,0.5512,0,0,0,45,0,0,0,1,0.18,0
1,0,0,0,0,0,0,0,0,0,0,0,0,0.54689,-5.5614e-16,0,0.54689,0,0,0,45,0,0,0,0,0.2,0
0.97812,0,0,0,0,0,0,0,0,0,0,0,0,0.54692,0.00059475,0,0.54692,0,0,0,45,0,0,0,0.02,0.2,0
0.95625,0,0,0,0,0,0,0,0,0,0,0,0,0.54699,0.0012162,0,0.54699,0,0,0,45,0,0,0,0.04,0.2,0
0.93437,0,0,0,0,0,0,0,0,0,0,0,0,0.54711,0.0018917,0,0.54711,0,0,0,45,0,0,0,0.06,0.2,0
0.91248,0,0,0,0,0,0,0,0,0,0,0,0,0.54728,0.0026508,0,0.54729,0,0,0,45,0,0,0,0.08,0.2,0
0.89058,0,0,0,0,0,0,0,0,0,0,0,0,0.5475,0.0035256,0,0.54751,0,0,0,45,0,0,0,0.1,0.2,0
0.86868,0,0,0,0,0,0,0,0,0,0,0,0,0.54777,0.0045521,0,0.54779,0,0,0,45,0,0,0,0.12,0.2,0
0.84676,0,0,0,0,0,0,0,0,0,0,0,0,0.54809,0.0057716,0,0.54812,0,0,0,45,0,0,0,0.14,0.2,0
0.82483,0,0,0,0,0,0,0,0,0,0,0,0,0.54846,0.0072322,0,0.54851,0,0,0,45,0,0,0,0.16,0.2,0
0.80288,0,0,0,0,0,0,0,0,0,0,0,0,0.54888,0.0089908,0,0.54895,0,0,0,45,0,0,0,0.18,0.2,0
0.78092,0,0,0,0,0,0,0,0,0,0,0,0,0.54934,0.011116,0,0.54945,0,0,0,45,0,0,0,0.2,0.2,0
0.75894,0,0,0,0,0,0,0,0,0,0,0,0,0.54983,0.013688,0,0.55,0,0,0,45,0,0,0,0.22,0.2,0
0.73693,0,0,0,0,0,0,0,0,0,0,0,0,0.55032,0.01681,0,0.55058,0,0,0,45,0,0,0,0.24,0.2,0
0.71491,0,0,0,0,0,0,0,0,0,0,0,0,0.55079,0.020606,0,0.55118,0,0,0,45,0,0,0,0.26,0.2,0
0.69287,0,0,0,0,0,0,0,0,0,0,0,0,0.55118,0.025233,0,0.55175,0,0,0,45,0,0,0,0.28,0.2,0
0.67082,0,0,0,0,0,0,0,0,0,0,0,0,0.55138,0.030888,0,0.55224,0,0,0,45,0,0,0,0.3,0.2,0
0.64876,0,0,0,0,0,0,0,0,0,0,0,0,0.55122,0.037826,0,0.5525,0,0,0,45,0,0,0,0.32,0.2,0
0.62672,0,0,0,0,0,0,0,0,0,0,0,0,0.55035,0.046365,0,0.55229,0,0,0,45,0,0,0,0.34,0.2,0
0.60473,0,0,0,0,0,0,0,0,0,0,0,0,0.54815,0.056868,0,0.55107,0,0,0,45,0,0,0,0.36,0.2,0
0.58287,0,0,0,0,0,0,0,0,0,0,0,0,0.54384,0.069575,0,0.54826,0,0,0,45,0,0,0,0.38,0.2,0
0.56122,0,0,0,0,0,0,0,0,0,0,0,0,0.53612,0.083473,0,0.54256,0,0,0,45,0,0,0,0.4,0.2,0
0.53998,0,0,0,0,0,0,0,0,0,0,0,0,0.5262,0.098864,0,0.53544,0,0,0,45,0,0,0,0.42,0.2,0
0.51913,0,0,0,0,0,0,0,0,0,0,0,0,0.50887,0.10823,0,0.52016,0,0,0,45,0,0,0,0.44,0.2,0
0.49927,0,0,0,0,0,0,0,0,0,0,0,0,0.5066,0.13367,0,0.52375,0,0,0,45,0,0,0,0.46,0.2,0
0.4786,0,0,0,0,0,0,0,0,0,0,0,0,0.60559,0.094237,0,0.61513,0,0,0,45,0,0,0,0.48,0.2,0
0.46374,0,0,0,0,0,0,0,0,0,0,0,0,0.51857,0.028112,0,0.51964,0,0,0,45,0,0,0,0.5,0.2,0
0.4512,0,0,0,0,0,0,0,0,0,0,0,0,0.65446,0.038949,0,0.65566,0,0,0,45,0,0,0,0.52,0.2,0
0.43756,0,0,0,0,0,0,0,0,0,0,0,0,0.69059,0.028133,0,0.69118,0,0,0,45,0,0,0,0.54,0.2,0
0.42358,0,0,0,0,0,0,0,0,0,0,0,0,0.70329,0.01656,0,0.70347,0,0,0,45,0,0,0,0.56,0.2,0
0.40943,0,0,0,0,0,0,0,0,0,0,0,0,0.70838,0.0052413,0,0.70838,0,0,0,45,0,0,0,0.58,0.2,0
0.39524,0,0,0,0,0,0,0,0,0,0,0,0,0.70847,-0.0059134,0,0.70848,0,0,0,45,0,0,0,0.6,0.2,0
0.38109,0,0,0,0,0,0,0,0,0,0,0,0,0.70356,-0.017196,0,0.70376,0,0,0,45,0,0,0,0.62,0.2,0
0.3671,0,0,0,0,0,0,0,0,0,0,0,0,0.691,-0.028705,0,0.69161,0,0,0,45,0,0,0,0.64,0.2,0
0.35346,0,0,0,0,0,0,0,0,0,0,0,0,0.65492,-0.039447,0,0.65615,0,0,0,45,0,0,0,0.66,0.2,0
0.3409,0,0,0,0,0,0,0,0,0,0,0,0,0.51898,-0.028462,0,0.52008,0,0,0,45,0,0,0,0.68,0.2,0
0.32603,0,0,0,0,0,0,0,0,0,0,0,0,0.60611,-0.094638,0,0.61572,0,0,0,45,0,0,0,0.7,0.2,0
0.30534,0,0,0,0,0,0,0,0,0,0,0,0,0.50707,-0.13406,0,0.5243,0,0,0,45,0,0,0,0.72,0.2,0
0.28547,0,0,0,0,0,0,0,0,0,0,0,0,0.50937,-0.1087,0,0.52075,0,0,0,45,0,0,0,0.74,0.2,0
0.2646,0,0,0,0,0,0,0,0,0,0,0,0,0.52687,-0.099474,0,0.53621,0,0,0,45,0,0,0,0.76,0.2,0
0.24332,0,0,0,0,0,0,0,0,0,0,0,0,0.53707,-0.084219,0,0.54361,0,0,0,45,0,0,0,0.78,0.2,0
0.22163,0,0,0,0,0,0,0,0,0,0,0,0,0.54521,-0.070365,0,0.54972,0,0,0,45,0,0,0,0.8,0.2,0
0.1997,0,0,0,0,0,0,0,0,0,0,0,0,0.55005,-0.057539,0,0.55303,0,0,0,45,0,0,0,0.82,0.2,0
0.17763,0,0,0,0,0,0,0,0,0,0,0,0,0.55283,-0.046716,0,0.55479,0,0,0,45,0,0,0,0.84,0.2,0
0.15548,0,0,0,0,0,0,0,0,0,0,0,0,0.55428,-0.037656,0,0.55555,0,0,0,45,0,0,0,0.86,0.2,0
0.13328,0,0,0,0,0,0,0,0,0,0,0,0,0.555,-0.030016,0,0.55581,0,0,0,45,0,0,0,0.88,0.2,0
0.11107,0,0,0,0,0,0,0,0,0,0,0,0,0.55532,-0.023495,0,0.55581,0,0,0,45,0,0,0,0.9,0.2,0
0.088858,0,0,0,0,0,0,0,0,0,0,0,0,0.55542,-0.017841,0,0.5557,0,0,0,45,0,0,0,0.92,0.2,0
0.066641,0,0,0,0,0,0,0,0,0,0,0,0,0.55541,-0.01284,0,0.55556,0,0,0,45,0,0,0,0.94,0.2,0
0.044425,0,0,0,0,0,0,0,0,0,0,0,0,0.55536,-0.0083092,0,0.55542,0,0,0,45,0,0,0,0.96,0.2,0
0.022212,0,0,0,0,0,0,0,0,0,0,0,0,0.55532,-0.0040805,0,0.55533,0,0,0,45,0,0,0,0.98,0.2,0
0,0,0,0,0,0,0,0,0,0,0,0,0,0.5553,-6.5052e-18,0,0.5553,0,0,0,45,0,0,0,1,0.2,0
1,0,0,0,0,0,0,0,0,0,0,0,0,0.54746,1.0934e-16,0,0.54746,0,0,0,45,0,0,0,0,0.22,0
0.9781,0,0,0,0,0,0,0,0,0,0,0,0,0.5475,0.00053361,0,0.5475,0,0,0,45,0,0,0,0.02,0.22,0
0.9562,0,0,0,0,0,0,0,0,0,0,0,0,0.54761,0.0010931,0,0.54761,0,0,0,45,0,0,0,0.04,0.22,0
0.93429,0,0,0,0,0,0,0,0,0,0,0,0,0.5478,0.0017054,0,0.5478,0,0,0,45,0,0,0,0.06,0.22,0
0.91238,0,0,0,0,0,0,0,0,0,0,0,0,0.54807,0.002399,0,0.54808,0,0,0,45,0,0,0,0.08,0.22,0
0.89045,0,0,0,0,0,0,0,0,0,0,0,0,0.54843,0.0032055,0,0.54843,0,0,0,45,0,0,0,0.1,0.22,0
0.8685,0,0,0,0,0,0,0,0,0,0,0,0,0.54887,0.0041606,0,0.54888,0,0,0,45,0,0,0,0.12,0.22,0
0.84654,0,0,0,0,0,0,0,0,0,0,0,0,0.54941,0.0053053,0,0.54943,0,0,0,45,0,0,0,0.14,0.22,0
0.82455,0,0,0,0,0,0,0,0,0,0,0,0,0.55005,0.0066879,0,0.55009,0,0,0,45,0,0,0,0.16,0.22,0
0.80253,0,0,0,0,0,0,0,0,0,0,0,0,0.5508,0.0083663,0,0.55086,0,0,0,45,0,0,0,0.18,0.22,0
0.78048,0,0,0,0,0,0,0,0,0,0,0,0,0.55167,0.01041,0,0.55177,0,0,0,45,0,0,0,0.2,0.22,0
0.7584,0,0,0,0,0,0,0,0,0,0,0,0,0.55267,0.012906,0,0.55282,0,0,0,45,0,0,0,0.22,0.22,0
0.73627,0,0,0,0,0,0,0,0,0,0,0,0,0.55379,0.015961,0,0.55402,0,0,0,45,0,0,0,0.24,0.22,0
0.7141,0,0,0,0,0,0,0,0,0,0,0,0,0.55504,0.019712,0,0.55539,0,0,0,45,0,0,0,0.26,0.22,0
0.69187,0,0,0,0,0,0,0,0,0,0,0,0,0.5564,0.024336,0,0.55693,0,0,0,45,0,0,0,0.28,0.22,0
0.66958,0,0,0,0,0,0,0,0,0,0,0,0,0.55784,0.030069,0,0.55864,0,0,0,45,0,0,0,0.3,0.22,0
0.64724,0,0,0,0,0,0,0,0,0,0,0,0,0.55926,0.037238,0,0.56049,0,0,0,45,0,0,0,0.32,0.22,0
0.62484,0,0,0,0,0,0,0,0,0,0,0,0,0.56045,0.046313,0,0.56234,0,0,0,45,0,0,0,0.34,0.22,0
0.60241,0,0,0,0,0,0,0,0,0,0,0,0,0.56088,0.057997,0,0.56384,0,0,0,45,0,0,0,0.36,0.22,0
0.57997,0,0,0,0,0,0,0,0,0,0,0,0,0.5586,0.07333,0,0.56335,0,0,0,45,0,0,0,0.38,0.22,0
0.55772,0,0,0,0,0,0,0,0,0,0,0,0,0.55332,0.093498,0,0.56114,0,0,0,45,0,0,0,0.4,0.22,0
0.53571,0,0,0,0,0,0,0,0,0,0,0,0,0.53786,0.1092,0,0.5487,0,0,0,45,0,0,0,0.42,0.22,0
0.51469,0,0,0,0,0,0,0,0,0,0,0,0,0.53557,0.13986,0,0.55335,0,0,0,45,0,0,0,0.44,0.22,0
0.49286,0,0,0,0,0,0,0,0,0,0,0,0,0.64023,0.096591,0,0.64945,0,0,0,45,0,0,0,0.46,0.22,0
0.47715,0,0,0,0,0,0,0,0,0,0,0,0,0.54138,0.014384,0,0.54138,0,0,0,45,0,0,0,0.48,0.22,0
0.46431,0,0,0,0,0,0,0,0,0,0,0,0,0.66036,-0.013126,0,0.66017,0,0,0,45,0,0,0,0.5,0.22,0
0.45073,0,0,0,0,0,0,0,0,0,0,0,0,0.67897,0.013292,0,0.67909,0,0,0,45,0,0,0,0.52,0.22,0
0.43715,0,0,0,0,0,0,0,0,0,0,0,0,0.68547,0.015072,0,0.68566,0,0,0,45,0,0,0,0.54,0.22,0
0.42331,0,0,0,0,0,0,0,0,0,0,0,0,0.695,0.01012,0,0.69508,0,0,0,45,0,0,0,0.56,0.22,0
0.40935,0,0,0,0,0,0,0,0,0,0,0,0,0.69931,0.0032165,0,0.69931,0,0,0,45,0,0,0,0.58,0.22,0
0.39534,0,0,0,0,0,0,0,0,0,0,0,0,0.69942,-0.0041099,0,0.69943,0,0,0,45,0,0,0,0.6,0.22,0
0.38137,0,0,0,0,0,0,0,0,0,0,0,0,0.69534,-0.010949,0,0.69543,0,0,0,45,0,0,0,0.62,0.22,0
0.36753,0,0,0,0,0,0,0,0,0,0,0,0,0.68598,-0.015779,0,0.68618,0,0,0,45,0,0,0,0.64,0.22,0
0.35393,0,0,0,0,0,0,0,0,0,0,0,0,0.67957,-0.013837,0,0.6797,0,0,0,45,0,0,0,0.66,0.22,0
0.34035,0,0,0,0,0,0,0,0,0,0,0,0,0.66094,0.012775,0,0.66075,0,0,0,45,0,0,0,0.68,0.22,0
0.32749,0,0,0,0,0,0,0,0,0,0,0,0,0.54181,-0.014621,0,0.54181,0,0,0,45,0,0,0,0.7,0.22,0
0.31177,0,0,0,0,0,0,0,0,0,0,0,0,0.6407,-0.096935,0,0.64998,0,0,0,45,0,0,0,0.72,0.22,0
0.28993,0,0,0,0,0,0,0,0,0,0,0,0,0.53593,-0.14034,0,0.55382,0,0,0,45,0,0,0,0.74,0.22,0
0.26889,0,0,0,0,0,0,0,0,0,0,0,0,0.53831,-0.11001,0,0.54931,0,0,0,45,0,0,0,0.76,0.22,0
0.24686,0,0,0,0,0,0,0,0,0,0,0,0,0.5541,-0.094661,0,0.56211,0,0,0,45,0,0,0,0.78,0.22,0
0.22457,0,0,0,0,0,0,0,0,0,0,0,0,0.55995,-0.074736,0,0.56487,0,0,0,45,0,0,0,0.8,0.22,0
0.20207,0,0,0,0,0,0,0,0,0,0,0,0,0.56297,-0.059386,0,0.56606,0,0,0,45,0,0,0,0.82,0.22,0
0.17953,0,0,0,0,0,0,0,0,0,0,0,0,0.56335,-0.047388,0,0.56532,0,0,0,45,0,0,0,0.84,0.22,0
0.157,0,0,0,0,0,0,0,0,0,0,0,0,0.56295,-0.037744,0,0.56421,0,0,0,45,0,0,0,0.86,0.22,0
0.13449,0,0,0,0,0,0,0,0,0,0,0,0,0.56227,-0.029813,0,0.56305,0,0,0,45,0,0,0,0.88,0.22,0
0.11202,0,0,0,0,0,0,0,0,0,0,0,0,0.56151,-0.023168,0,0.56198,0,0,0,45,0,0,0,0.9,0.22,0
0.089572,0,0,0,0,0,0,0,0,0,0,0,0,0.5608,-0.017494,0,0.56106,0,0,0,45,0,0,0,0.92,0.22,0
0.067153,0,0,0,0,0,0,0,0,0,0,0,0,0.56019,-0.012538,0,0.56033,0,0,0,45,0,0,0,0.94,0.22,0
0.044757,0,0,0,0,0,0,0,0,0,0,0,0,0.55974,-0.0080897,0,0.55979,0,0,0,45,0,0,0,0.96,0.22,0
0.022374,0,0,0,0,0,0,0,0,0,0,0,0,0.55946,-0.0039658,0,0.55947,0,0,0,45,0,0,0,0.98,0.22,0
0,0,0,0,0,0,0,0,0,0,0,0,0,0.55936,8.0231e-18,0,0.55936,0,0,0,45,0,0,0,1,0.22,0
1,0,0,0,0,0,0,0,0,0,0,0,0,0.54796,3.9601e-17,0,0.54796,0,0,0,45,0,0,0,0,0.24,0
0.97808,0,0,0,0,0,0,0,0,0,0,0,0,0.54801,0.00044687,0,0.54801,0,0,0,45,0,0,0,0.02,0.24,0
0.95616,0,0,0,0,0,0,0,0,0,0,0,0,0.54816,0.00091802,0,0.54816,0,0,0,45,0,0,0,0.04,0.24,0
0.93423,0,0,0,0,0,0,0,0,0,0,0,0,0.54841,0.0014386,0,0.54842,0,0,0,45,0,0,0,0.06,0.24,0
0.91229,0,0,0,0,0,0,0,0,0,0,0,0,0.54878,0.0020356,0,0.54878,0,0,0,45,0,0,0,0.08,0.24,0
0.89033,0,0,0,0,0,0,0,0,0,0,0,0,0.54926,0.0027388,0,0.54927,0,0,0,45,0,0,0,0.1,0.24,0
0.86835,0,0,0,0,0,0,0,0,0,0,0,0,0.54987,0.0035819,0,0.54988,0,0,0,45,0,0,0,0.12,0.24,0
0.84634,0,0,0,0,0,0,0,0,0,0,0,0,0.55062,0.0046041,0,0.55064,0,0,0,45,0,0,0,0.14,0.24,0
0.8243,0,0,0,0,0,0,0,0,0,0,0,0,0.55152,0.0058519,0,0.55155,0,0,0,45,0,0,0,0.16,0.24,0
0.80222,0,0,0,0,0,0,0,0,0,0,0,0,0.5526,0.0073812,0,0.55265,0,0,0,45,0,0,0,0.18,0.24,0
0.78009,0,0,0,0,0,0,0,0,0,0,0,0,0.55388,0.0092603,0,0.55395,0,0,0,45,0,0,0,0.2,0.24,0
0.75791,0,0,0,0,0,0,0,0,0,0,0,0,0.55538,0.011574,0,0.5555,0,0,0,45,0,0,0,0.22,0.24,0
0.73566,0,0,0,0,0,0,0,0,0,0,0,0,0.55713,0.014429,0,0.55732,0,0,0,45,0,0,0,0.24,0.24,0
0.71333,0,0,0,0,0,0,0,0,0,0,0,0,0.55917,0.017964,0,0.55946,0,0,0,45,0,0,0,0.26,0.24,0
0.69092,0,0,0,0,0,0,0,0,0,0,0,0,0.56154,0.022358,0,0.56198,0,0,0,45,0,0,0,0.28,0.24,0
0.66841,0,0,0,0,0,0,0,0,0,0,0,0,0.56428,0.027859,0,0.56497,0,0,0,45,0,0,0,0.3,0.24,0
0.64578,0,0,0,0,0,0,0,0,0,0,0,0,0.56746,0.034816,0,0.56852,0,0,0,45,0,0,0,0.32,0.24,0
0.62301,0,0,0,0,0,0,0,0,0,0,0,0,0.57111,0.043768,0,0.57277,0,0,0,45,0,0,0,0.34,0.24,0
0.60009,0,0,0,0,0,0,0,0,0,0,0,0,0.57517,0.055622,0,0.57783,0,0,0,45,0,0,0,0.36,0.24,0
0.577,0,0,0,0,0,0,0,0,0,0,0,0,0.57934,0.072136,0,0.58376,0,0,0,45,0,0,0,0.38,0.24,0
0.55375,0,0,0,0,0,0,0,0,0,0,0,0,0.57199,0.097474,0,0.57996,0,0,0,45,0,0,0,0.4,0.24,0
0.53124,0,0,0,0,0,0,0,0,0,0,0,0,0.57256,0.14393,0,0.59026,0,0,0,45,0,0,0,0.42,0.24,0
0.50794,0,0,0,0,0,0,0,0,0,0,0,0,0.67715,0.1121,0,0.6877,0,0,0,45,0,0,0,0.44,0.24,0
0.49138,0,0,0,0,0,0,0,0,0,0,0,0,0.56631,0.015583,0,0.56597,0,0,0,45,0,0,0,0.46,0.24,0
0.4781,0,0,0,0,0,0,0,0,0,0,0,0,0.67782,-0.02508,0,0.67807,0,0,0,45,0,0,0,0.48,0.24,0
0.46427,0,0,0,0,0,0,0,0,0,0,0,0,0.68579,-0.0021054,0,0.68573,0,0,0,45,0,0,0,0.5,0.24,0
0.45067,0,0,0,0,0,0,0,0,0,0,0,0,0.68266,0.0022604,0,0.68266,0,0,0,45,0,0,0,0.52,0.24,0
0.43696,0,0,0,0,0,0,0,0,0,0,0,0,0.68741,0.0062463,0,0.68745,0,0,0,45,0,0,0,0.54,0.24,0
0.42317,0,0,0,0,0,0,0,0,0,0,0,0,0.69143,0.005014,0,0.69145,0,0,0,45,0,0,0,0.56,0.24,0
0.4093,0,0,0,0,0,0,0,0,0,0,0,0,0.69415,0.0014785,0,0.69415,0,0,0,45,0,0,0,0.58,0.24,0
0.39541,0,0,0,0,0,0,0,0,0,0,0,0,0.69431,-0.0026588,0,0.69431,0,0,0,45,0,0,0,0.6,0.24,0
0.38153,0,0,0,0,0,0,0,0,0,0,0,0,0.69188,-0.0060973,0,0.69191,0,0,0,45,0,0,0,0.62,0.24,0
0.36773,0,0,0,0,0,0,0,0,0,0,0,0,0.68811,-0.0071357,0,0.68815,0,0,0,45,0,0,0,0.64,0.24,0
0.35401,0,0,0,0,0,0,0,0,0,0,0,0,0.68348,-0.0028654,0,0.68348,0,0,0,45,0,0,0,0.66,0.24,0
0.34039,0,0,0,0,0,0,0,0,0,0,0,0,0.68658,0.0018278,0,0.68652,0,0,0,45,0,0,0,0.68,0.24,0
0.32654,0,0,0,0,0,0,0,0,0,0,0,0,0.67839,0.025081,0,0.67862,0,0,0,45,0,0,0,0.7,0.24,0
0.31326,0,0,0,0,0,0,0,0,0,0,0,0,0.5665,-0.015654,0,0.56617,0,0,0,45,0,0,0,0.72,0.24,0
0.29669,0,0,0,0,0,0,0,0,0,0,0,0,0.67721,-0.11249,0,0.68783,0,0,0,45,0,0,0,0.74,0.24,0
0.2734,0,0,0,0,0,0,0,0,0,0,0,0,0.57255,-0.14482,0,0.59046,0,0,0,45,0,0,0,0.76,0.24,0
0.25089,0,0,0,0,0,0,0,0,0,0,0,0,0.57234,-0.099199,0,0.5806,0,0,0,45,0,0,0,0.78,0.24,0
0.22761,0,0,0,0,0,0,0,0,0,0,0,0,0.58049,-0.074461,0,0.58518,0,0,0,45,0,0,0,0.8,0.24,0
0.20445,0,0,0,0,0,0,0,0,0,0,0,0,0.57739,-0.058056,0,0.58028,0,0,0,45,0,0,0,0.82,0.24,0
0.18142,0,0,0,0,0,0,0,0,0,0,0,0,0.57447,-0.045828,0,0.57628,0,0,0,45,0,0,0,0.84,0.24,0
0.15849,0,0,0,0,0,0,0,0,0,0,0,0,0.57186,-0.03618,0,0.57299,0,0,0,45,0,0,0,0.86,0.24,0
0.13567,0,0,0,0,0,0,0,0,0,0,0,0,0.56958,-0.028355,0,0.57028,0,0,0,45,0,0,0,0.88,0.24,0
0.11293,0,0,0,0,0,0,0,0,0,0,0,0,0.56764,-0.02189,0,0.56806,0,0,0,45,0,0,0,0.9,0.24,0
0.090258,0,0,0,0,0,0,0,0,0,0,0,0,0.56605,-0.016442,0,0.56629,0,0,0,45,0,0,0,0.92,0.24,0
0.067644,0,0,0,0,0,0,0,0,0,0,0,0,0.56481,-0.011737,0,0.56493,0,0,0,45,0,0,0,0.94,0.24,0
0.045073,0,0,0,0,0,0,0,0,0,0,0,0,0.56393,-0.0075514,0,0.56398,0,0,0,45,0,0,0,0.96,0.24,0
0.022529,0,0,0,0,0,0,0,0,0,0,0,0,0.56341,-0.0036958,0,0.56342,0,0,0,45,0,0,0,0.98,0.24,0
0,0,0,0,0,0,0,0,0,0,0,0,0,0.56323,2.1684e-19,0,0.56323,0,0,0,45,0,0,0,1,0.24,0
1,0,0,0,0,0,0,0,0,0,0,0,0,0.54836,5.7339e-16,0,0.54836,0,0,0,45,0,0,0,0,0.26,0
0.97807,0,0,0,0,0,0,0,0,0,0,0,0,0.54842,0.00033612,0,0.54842,0,0,0,45,0,0,0,0.02,0.26,0
0.95613,0,0,0,0,0,0,0,0,0,0,0,0,0.5486,0.00069404,0,0.54861,0,0,0,45,0,0,0,0.04,0.26,0
0.93418,0,0,0,0,0,0,0,0,0,0,0,0,0.54892,0.0010964,0,0.54892,0,0,0,45,0,0,0,0.06,0.26,0
0.91221,0,0,0,0,0,0,0,0,0,0,0,0,0.54937,0.0015673,0,0.54937,0,0,0,45,0,0,0,0.08,0.26,0
0.89023,0,0,0,0,0,0,0,0,0,0,0,0,0.54997,0.0021338,0,0.54997,0,0,0,45,0,0,0,0.1,0.26,0
0.86821,0,0,0,0,0,0,0,0,0,0,0,0,0.55073,0.0028263,0,0.55074,0,0,0,45,0,0,0,0.12,0.26,0
0.84617,0,0,0,0,0,0,0,0,0,0,0,0,0.55168,0.0036805,0,0.55169,0,0,0,45,0,0,0,0.14,0.26,0
0.82408,0,0,0,0,0,0,0,0,0,0,0,0,0.55283,0.0047386,0,0.55285,0,0,0,45,0,0,0,0.16,0.26,0
0.80194,0,0,0,0,0,0,0,0,0,0,0,0,0.55421,0.0060517,0,0.55424,0,0,0,45,0,0,0,0.18,0.26,0
0.77974,0,0,0,0,0,0,0,0,0,0,0,0,0.55586,0.0076827,0,0.55592,0,0,0,45,0,0,0,0.2,0.26,0
0.75747,0,0,0,0,0,0,0,0,0,0,0,0,0.55783,0.0097098,0,0.55792,0,0,0,45,0,0,0,0.22,0.26,0
0.73512,0,0,0,0,0,0,0,0,0,0,0,0,0.56018,0.012232,0,0.56031,0,0,0,45,0,0,0,0.24,0.26,0
0.71266,0,0,0,0,0,0,0,0,0,0,0,0,0.56297,0.015375,0,0.56318,0,0,0,45,0,0,0,0.26,0.26,0
0.69008,0,0,0,0,0,0,0,0,0,0,0,0,0.5663,0.019306,0,0.56663,0,0,0,45,0,0,0,0.28,0.26,0
0.66736,0,0,0,0,0,0,0,0,0,0,0,0,0.5703,0.024245,0,0.57081,0,0,0,45,0,0,0,0.3,0.26,0
0.64446,0,0,0,0,0,0,0,0,0,0,0,0,0.57517,0.030502,0,0.57598,0,0,0,45,0,0,0,0.32,0.26,0
0.62134,0,0,0,0,0,0,0,0,0,0,0,0,0.58125,0.038537,0,0.58253,0,0,0,45,0,0,0,0.34,0.26,0
0.59796,0,0,0,0,0,0,0,0,0,0,0,0,0.58925,0.049119,0,0.59128,0,0,0,45,0,0,0,0.36,0.26,0
0.5742,0,0,0,0,0,0,0,0,0,0,0,0,0.60045,0.063777,0,0.60381,0,0,0,45,0,0,0,0.38,0.26,0
0.54992,0,0,0,0,0,0,0,0,0,0,0,0,0.62511,0.086268,0,0.63085,0,0,0,45,0,0,0,0.4,0.26,0
0.52419,0,0,0,0,0,0,0,0,0,0,0,0,0.74431,0.17434,0,0.76284,0,0,0,45,0,0,0,0.42,0.26,0
0.50602,0,0,0,0,0,0,0,0,0,0,0,0,0.60731,0.033107,0,0.6072,0,0,0,45,0,0,0,0.44,0.26,0
0.4923,0,0,0,0,0,0,0,0,0,0,0,0,0.69685,-0.018264,0,0.69694,0,0,0,45,0,0,0,0.46,0.26,0
0.47815,0,0,0,0,0,0,0,0,0,0,0,0,0.69763,-0.0034463,0,0.69758,0,0,0,45,0,0,0,0.48,0.26,0
0.46439,0,0,0,0,0,0,0,0,0,0,0,0,0.6877,-0.0036973,0,0.68771,0,0,0,45,0,0,0,0.5,0.26,0
0.45064,0,0,0,0,0,0,0,0,0,0,0,0,0.68732,0.00046061,0,0.68732,0,0,0,45,0,0,0,0.52,0.26,0
0.4369,0,0,0,0,0,0,0,0,0,0,0,0,0.68823,0.0019412,0,0.68823,0,0,0,45,0,0,0,0.54,0.26,0
0.42311,0,0,0,0,0,0,0,0,0,0,0,0,0.69024,0.0018092,0,0.69024,0,0,0,45,0,0,0,0.56,0.26,0
0.40929,0,0,0,0,0,0,0,0,0,0,0,0,0.69163,0.00022773,0,0.69163,0,0,0,45,0,0,0,0.58,0.26,0
0.39545,0,0,0,0,0,0,0,0,0,0,0,0,0.69185,-0.0017914,0,0.69185,0,0,0,45,0,0,0,0.6,0.26,0
0.38162,0,0,0,0,0,0,0,0,0,0,0,0,0.69086,-0.003245,0,0.69087,0,0,0,45,0,0,0,0.62,0.26,0
0.36781,0,0,0,0,0,0,0,0,0,0,0,0,0.68921,-0.0031092,0,0.68922,0,0,0,45,0,0,0,0.64,0.26,0
0.35405,0,0,0,0,0,0,0,0,0,0,0,0,0.68853,-0.0012036,0,0.68853,0,0,0,45,0,0,0,0.66,0.26,0
0.34027,0,0,0,0,0,0,0,0,0,0,0,0,0.68889,0.0035379,0,0.6889,0,0,0,45,0,0,0,0.68,0.26,0
0.32649,0,0,0,0,0,0,0,0,0,0,0,0,0.69842,0.0039269,0,0.69837,0,0,0,45,0,0,0,0.7,0.26,0
0.31234,0,0,0,0,0,0,0,0,0,0,0,0,0.69684,0.019039,0,0.69693,0,0,0,45,0,0,0,0.72,0.26,0
0.29862,0,0,0,0,0,0,0,0,0,0,0,0,0.6065,-0.03303,0,0.60639,0,0,0,45,0,0,0,0.74,0.26,0
0.28048,0,0,0,0,0,0,0,0,0,0,0,0,0.74305,-0.17528,0,0.76179,0,0,0,45,0,0,0,0.76,0.26,0
0.2548,0,0,0,0,0,0,0,0,0,0,0,0,0.62446,-0.088893,0,0.63058,0,0,0,45,0,0,0,0.78,0.26,0
0.23052,0,0,0,0,0,0,0,0,0,0,0,0,0.60109,-0.067637,0,0.60486,0,0,0,45,0,0,0,0.8,0.26,0
0.20671,0,0,0,0,0,0,0,0,0,0,0,0,0.5916,-0.053122,0,0.59397,0,0,0,45,0,0,0,0.82,0.26,0
0.18319,0,0,0,0,0,0,0,0,0,0,0,0,0.58522,-0.041891,0,0.58671,0,0,0,45,0,0,0,0.84,0.26,0
0.15989,0,0,0,0,0,0,0,0,0,0,0,0,0.58043,-0.032856,0,0.58135,0,0,0,45,0,0,0,0.86,0.26,0
0.13676,0,0,0,0,0,0,0,0,0,0,0,0,0.57656,-0.025569,0,0.57712,0,0,0,45,0,0,0,0.88,0.26,0
0.11377,0,0,0,0,0,0,0,0,0,0,0,0,0.57342,-0.019618,0,0.57376,0,0,0,45,0,0,0,0.9,0.26,0
0.090887,0,0,0,0,0,0,0,0,0,0,0,0,0.57095,-0.014662,0,0.57113,0,0,0,45,0,0,0,0.92,0.26,0
0.068092,0,0,0,0,0,0,0,0,0,0,0,0,0.56908,-0.010426,0,0.56917,0,0,0,45,0,0,0,0.94,0.26,0
0.045361,0,0,0,0,0,0,0,0,0,0,0,0,0.56778,-0.0066903,0,0.56781,0,0,0,45,0,0,0,0.96,0.26,0
0.02267,0,0,0,0,0,0,0,0,0,0,0,0,0.56701,-0.0032691,0,0.56702,0,0,0,45,0,0,0,0.98,0.26,0
0,0,0,0,0,0,0,0,0,0,0,0,0,0.56675,2.1684e-19,0,0.56675,0,0,0,45,0,0,0,1,0.26,0
1,0,0,0,0,0,0,0,0,0,0,0,0,0.54863,2.0933e-15,0,0.54863,0,0,0,45,0,0,0,0,0.28,0
0.97806,0,0,0,0,0,0,0,0,0,0,0,0,0.5487,0.00020383,0,0.5487,0,0,0,45,0,0,0,0.02,0.28,0
0.9561,0,0,0,0,0,0,0,0,0,0,0,0,0.54892,0.00042619,0,0.54892,0,0,0,45,0,0,0,0.04,0.28,0
0.93414,0,0,0,0,0,0,0,0,0,0,0,0,0.54929,0.0006863,0,0.54929,0,0,0,45,0,0,0,0.06,0.28,0
0.91216,0,0,0,0,0,0,0,0,0,0,0,0,0.54982,0.0010048,0,0.54982,0,0,0,45,0,0,0,0.08,0.28,0
0.89016,0,0,0,0,0,0,0,0,0,0,0,0,0.55052,0.0014045,0,0.55052,0,0,0,45,0,0,0,0.1,0.28,0
0.86812,0,0,0,0,0,0,0,0,0,0,0,0,0.55142,0.0019114,0,0.55142,0,0,0,45,0,0,0,0.12,0.28,0
0.84604,0,0,0,0,0,0,0,0,0,0,0,0,0.55253,0.0025558,0,0.55254,0,0,0,45,0,0,0,0.14,0.28,0
0.82392,0,0,0,0,0,0,0,0,0,0,0,0,0.5539,0.0033739,0,0.5539,0,0,0,45,0,0,0,0.16,0.28,0
0.80173,0,0,0,0,0,0,0,0,0,0,0,0,0.55555,0.0044093,0,0.55556,0,0,0,45,0,0,0,0.18,0.28,0
0.77947,0,0,0,0,0,0,0,0,0,0,0,0,0.55754,0.0057156,0,0.55757,0,0,0,45,0,0,0,0.2,0.28,0
0.75713,0,0,0,0,0,0,0,0,0,0,0,0,0.55993,0.0073596,0,0.55998,0,0,0,45,0,0,0,0.22,0.28,0
0.73468,0,0,0,0,0,0,0,0,0,0,0,0,0.56279,0.0094249,0,0.56287,0,0,0,45,0,0,0,0.24,0.28,0
0.7121,0,0,0,0,0,0,0,0,0,0,0,0,0.56624,0.012017,0,0.56637,0,0,0,45,0,0,0,0.26,0.28,0
0.68938,0,0,0,0,0,0,0,0,0,0,0,0,0.57041,0.015271,0,0.57061,0,0,0,45,0,0,0,0.28,0.28,0
0.66647,0,0,0,0,0,0,0,0,0,0,0,0,0.57548,0.019357,0,0.57581,0,0,0,45,0,0,0,0.3,0.28,0
0.64334,0,0,0,0,0,0,0,0,0,0,0,0,0.58175,0.02449,0,0.58227,0,0,0,45,0,0,0,0.32,0.28,0
0.61993,0,0,0,0,0,0,0,0,0,0,0,0,0.58973,0.03094,0,0.59055,0,0,0,45,0,0,0,0.34,0.28,0
0.59616,0,0,0,0,0,0,0,0,0,0,0,0,0.60041,0.03904,0,0.60169,0,0,0,45,0,0,0,0.36,0.28,0
0.5719,0,0,0,0,0,0,0,0,0,0,0,0,0.6165,0.04913,0,0.61849,0,0,0,45,0,0,0,0.38,0.28,0
0.54684,0,0,0,0,0,0,0,0,0,0,0,0,0.64587,0.061428,0,0.64893,0,0,0,45,0,0,0,0.4,0.28,0
0.52023,0,0,0,0,0,0,0,0,0,0,0,0,0.67761,0.096924,0,0.68578,0,0,0,45,0,0,0,0.42,0.28,0
0.50643,0,0,0,0,0,0,0,0,0,0,0,0,0.70296,0.0099833,0,0.70221,0,0,0,45,0,0,0,0.44,0.28,0
0.49211,0,0,0,0,0,0,0,0,0,0,0,0,0.70483,0.0086886,0,0.70483,0,0,0,45,0,0,0,0.46,0.28,0
0.47824,0,0,0,0,0,0,0,0,0,0,0,0,0.69239,-0.0005696,0,0.69239,0,0,0,45,0,0,0,0.48,0.28,0
0.46442,0,0,0,0,0,0,0,0,0,0,0,0,0.68969,-0.00065881,0,0.68969,0,0,0,45,0,0,0,0.5,0.28,0
0.45065,0,0,0,0,0,0,0,0,0,0,0,0,0.68829,-0.00043905,0,0.68829,0,0,0,45,0,0,0,0.52,0.28,0
0.43688,0,0,0,0,0,0,0,0,0,0,0,0,0.68876,0.0001375,0,0.68876,0,0,0,45,0,0,0,0.54,0.28,0
0.4231,0,0,0,0,0,0,0,0,0,0,0,0,0.68972,4.1036e-05,0,0.68972,0,0,0,45,0,0,0,0.56,0.28,0
0.4093,0,0,0,0,0,0,0,0,0,0,0,0,0.69055,-0.00061244,0,0.69055,0,0,0,45,0,0,0,0.58,0.28,0
0.39548,0,0,0,0,0,0,0,0,0,0,0,0,0.69083,-0.0014582,0,0.69083,0,0,0,45,0,0,0,0.6,0.28,0
0.38166,0,0,0,0,0,0,0,0,0,0,0,0,0.69057,-0.0019658,0,0.69057,0,0,0,45,0,0,0,0.62,0.28,0
0.36786,0,0,0,0,0,0,0,0,0,0,0,0,0.69015,-0.0017435,0,0.69015,0,0,0,45,0,0,0,0.64,0.28,0
0.35406,0,0,0,0,0,0,0,0,0,0,0,0,0.69012,-0.00061699,0,0.69012,0,0,0,45,0,0,0,0.66,0.28,0
0.34025,0,0,0,0,0,0,0,0,0,0,0,0,0.69171,0.00047616,0,0.69171,0,0,0,45,0,0,0,0.68,0.28,0
0.32639,0,0,0,0,0,0,0,0,0,0,0,0,0.69389,0.0016773,0,0.69389,0,0,0,45,0,0,0,0.7,0.28,0
0.3125,0,0,0,0,0,0,0,0,0,0,0,0,0.70479,-0.0060451,0,0.70476,0,0,0,45,0,0,0,0.72,0.28,0
0.2982,0,0,0,0,0,0,0,0,0,0,0,0,0.70074,-0.0077777,0,0.69987,0,0,0,45,0,0,0,0.74,0.28,0
0.28447,0,0,0,0,0,0,0,0,0,0,0,0,0.67405,-0.097236,0,0.68231,0,0,0,45,0,0,0,0.76,0.28,0
0.258,0,0,0,0,0,0,0,0,0,0,0,0,0.64307,-0.066003,0,0.64657,0,0,0,45,0,0,0,0.78,0.28,0
0.23302,0,0,0,0,0,0,0,0,0,0,0,0,0.61626,-0.055822,0,0.6188,0,0,0,45,0,0,0,0.8,0.28,0
0.2087,0,0,0,0,0,0,0,0,0,0,0,0,0.60314,-0.045538,0,0.60486,0,0,0,45,0,0,0,0.82,0.28,0
0.18477,0,0,0,0,0,0,0,0,0,0,0,0,0.59474,-0.035743,0,0.59581,0,0,0,45,0,0,0,0.84,0.28,0
0.16112,0,0,0,0,0,0,0,0,0,0,0,0,0.58818,-0.027803,0,0.58883,0,0,0,45,0,0,0,0.86,0.28,0
0.13772,0,0,0,0,0,0,0,0,0,0,0,0,0.58282,-0.021475,0,0.58321,0,0,0,45,0,0,0,0.88,0.28,0
0.1145,0,0,0,0,0,0,0,0,0,0,0,0,0.57855,-0.016375,0,0.57878,0,0,0,45,0,0,0,0.9,0.28,0
0.091431,0,0,0,0,0,0,0,0,0,0,0,0,0.57524,-0.012178,0,0.57537,0,0,0,45,0,0,0,0.92,0.28,0
0.068478,0,0,0,0,0,0,0,0,0,0,0,0,0.57279,-0.0086277,0,0.57285,0,0,0,45,0,0,0,0.94,0.28,0
0.045608,0,0,0,0,0,0,0,0,0,0,0,0,0.57109,-0.0055217,0,0.57112,0,0,0,45,0,0,0,0.96,0.28,0
0.022791,0,0,0,0,0,0,0,0,0,0,0,0,0.5701,-0.0026939,0,0.5701,0,0,0,45,0,0,0,0.98,0.28,0
0,0,0,0,0,0,0,0,0,0,0,0,0,0.56977,-4.9873e-18,0,0.56977,0,0,0,45,0,0,0,1,0.28,0
1,0,0,0,0,0,0,0,0,0,0,0,0,0.54876,1.3256e-15,0,0.54876,0,0,0,45,0,0,0,0,0.3,0
0.97805,0,0,0,0,0,0,0,0,0,0,0,0,0.54884,5.3235e-05,0,0.54884,0,0,0,45,0,0,0,0.02,0.3,0
0.95609,0,0,0,0,0,0,0,0,0,0,0,0,0.54909,0.00012106,0,0.54909,0,0,0,45,0,0,0,0.04,0.3,0
0.93412,0,0,0,0,0,0,0,0,0,0,0,0,0.5495,0.0002186,0,0.5495,0,0,0,45,0,0,0,0.06,0.3,0
0.91213,0,0,0,0,0,0,0,0,0,0,0,0,0.55009,0.00036205,0,0.55009,0,0,0,45,0,0,0,0.08,0.3,0
0.89011,0,0,0,0,0,0,0,0,0,0,0,0,0.55088,0.00056932,0,0.55088,0,0,0,45,0,0,0,0.1,0.3,0
0.86806,0,0,0,0,0,0,0,0,0,0,0,0,0.55188,0.00086074,0,0.55189,0,0,0,45,0,0,0,0.12,0.3,0
0.84596,0,0,0,0,0,0,0,0,0,0,0,0,0.55314,0.00126,0,0.55314,0,0,0,45,0,0,0,0.14,0.3,0
0.82381,0,0,0,0,0,0,0,0,0,0,0,0,0.55468,0.0017952,0,0.55468,0,0,0,45,0,0,0,0.16,0.3,0
0.80159,0,0,0,0,0,0,0,0,0,0,0,0,0.55655,0.0025002,0,0.55656,0,0,0,45,0,0,0,0.18,0.3,0
0.77929,0,0,0,0,0,0,0,0,0,0,0,0,0.55881,0.0034165,0,0.55883,0,0,0,45,0,0,0,0.2,0.3,0
0.75689,0,0,0,0,0,0,0,0,0,0,0,0,0.56154,0.0045954,0,0.56156,0,0,0,45,0,0,0,0.22,0.3,0
0.73436,0,0,0,0,0,0,0,0,0,0,0,0,0.56484,0.0061003,0,0.56487,0,0,0,45,0,0,0,0.24,0.3,0
0.7117,0,0,0,0,0,0,0,0,0,0,0,0,0.56882,0.00801,0,0.56888,0,0,0,45,0,0,0,0.26,0.3,0
0.68886,0,0,0,0,0,0,0,0,0,0,0,0,0.57364,0.01042,0,0.57374,0,0,0,45,0,0,0,0.28,0.3,0
0.66581,0,0,0,0,0,0,0,0,0,0,0,0,0.57952,0.013439,0,0.57968,0,0,0,45,0,0,0,0.3,0.3,0
0.6425,0,0,0,0,0,0,0,0,0,0,0,0,0.58675,0.017182,0,0.58702,0,0,0,45,0,0,0,0.32,0.3,0
0.61887,0,0,0,0,0,0,0,0,0,0,0,0,0.59581,0.021716,0,0.59622,0,0,0,45,0,0,0,0.34,0.3,0
0.59483,0,0,0,0,0,0,0,0,0,0,0,0,0.60743,0.026938,0,0.60806,0,0,0,45,0,0,0,0.36,0.3,0
0.57027,0,0,0,0,0,0,0,0,0,0,0,0,0.62284,0.032164,0,0.62373,0,0,0,45,0,0,0,0.38,0.3,0
0.545,0,0,0,0,0,0,0,0,0,0,0,0,0.6406,0.034304,0,0.64161,0,0,0,45,0,0,0,0.4,0.3,0
0.51902,0,0,0,0,0,0,0,0,0,0,0,0,0.65974,0.035272,0,0.66083,0,0,0,45,0,0,0,0.42,0.3,0
0.50562,0,0,0,0,0,0,0,0,0,0,0,0,0.67686,0.031297,0,0.67759,0,0,0,45,0,0,0,0.44,0.3,0
0.49195,0,0,0,0,0,0,0,0,0,0,0,0,0.6863,0.0096292,0,0.68633,0,0,0,45,0,0,0,0.46,0.3,0
0.47817,0,0,0,0,0,0,0,0,0,0,0,0,0.68829,0.0031874,0,0.68829,0,0,0,45,0,0,0,0.48,0.3,0
0.46442,0,0,0,0,0,0,0,0,0,0,0,0,0.68783,4.5224e-06,0,0.68783,0,0,0,45,0,0,0,0.5,0.3,0
0.45066,0,0,0,0,0,0,0,0,0,0,0,0,0.68811,-0.00077075,0,0.68811,0,0,0,45,0,0,0,0.52,0.3,0
0.43689,0,0,0,0,0,0,0,0,0,0,0,0,0.68871,-0.00092942,0,0.68871,0,0,0,45,0,0,0,0.54,0.3,0
0.42311,0,0,0,0,0,0,0,0,0,0,0,0,0.68949,-0.0010129,0,0.68949,0,0,0,45,0,0,0,0.56,0.3,0
0.40931,0,0,0,0,0,0,0,0,0,0,0,0,0.69013,-0.0012327,0,0.69014,0,0,0,45,0,0,0,0.58,0.3,0
0.39551,0,0,0,0,0,0,0,0,0,0,0,0,0.69049,-0.0014823,0,0.6905,0,0,0,45,0,0,0,0.6,0.3,0
0.3817,0,0,0,0,0,0,0,0,0,0,0,0,0.69058,-0.0015635,0,0.69058,0,0,0,45,0,0,0,0.62,0.3,0
0.36788,0,0,0,0,0,0,0,0,0,0,0,0,0.69056,-0.0013329,0,0.69056,0,0,0,45,0,0,0,0.64,0.3,0
0.35407,0,0,0,0,0,0,0,0,0,0,0,0,0.69075,-0.00091121,0,0.69075,0,0,0,45,0,0,0,0.66,0.3,0
0.34025,0,0,0,0,0,0,0,0,0,0,0,0,0.69118,-0.00064956,0,0.69118,0,0,0,45,0,0,0,0.68,0.3,0
0.32643,0,0,0,0,0,0,0,0,0,0,0,0,0.6919,-0.0019514,0,0.6919,0,0,0,45,0,0,0,0.7,0.3,0
0.31258,0,0,0,0,0,0,0,0,0,0,0,0,0.68739,-0.0049154,0,0.68737,0,0,0,45,0,0,0,0.72,0.3,0
0.29893,0,0,0,0,0,0,0,0,0,0,0,0,0.67279,-0.020835,0,0.67322,0,0,0,45,0,0,0,0.74,0.3,0
0.28567,0,0,0,0,0,0,0,0,0,0,0,0,0.65143,-0.034662,0,0.65246,0,0,0,45,0,0,0,0.76,0.3,0
0.26008,0,0,0,0,0,0,0,0,0,0,0,0,0.63346,-0.042865,0,0.63495,0,0,0,45,0,0,0,0.78,0.3,0
0.23499,0,0,0,0,0,0,0,0,0,0,0,0,0.62156,-0.046502,0,0.62329,0,0,0,45,0,0,0,0.8,0.3,0
0.21035,0,0,0,0,0,0,0,0,0,0,0,0,0.61168,-0.036021,0,0.61275,0,0,0,45,0,0,0,0.82,0.3,0
0.18605,0,0,0,0,0,0,0,0,0,0,0,0,0.60296,-0.027569,0,0.6036,0,0,0,45,0,0,0,0.84,0.3,0
0.16212,0,0,0,0,0,0,0,0,0,0,0,0,0.5947,-0.021144,0,0.59508,0,0,0,45,0,0,0,0.86,0.3,0
0.13848,0,0,0,0,0,0,0,0,0,0,0,0,0.58799,-0.01618,0,0.58821,0,0,0,45,0,0,0,0.88,0.3,0
0.11508,0,0,0,0,0,0,0,0,0,0,0,0,0.58272,-0.012254,0,0.58285,0,0,0,45,0,0,0,0.9,0.3,0
0.091861,0,0,0,0,0,0,0,0,0,0,0,0,0.5787,-0.0090651,0,0.57877,0,0,0,45,0,0,0,0.92,0.3,0
0.068783,0,0,0,0,0,0,0,0,0,0,0,0,0.57574,-0.0063965,0,0.57577,0,0,0,45,0,0,0,0.94,0.3,0
0.045802,0,0,0,0,0,0,0,0,0,0,0,0,0.57371,-0.004082,0,0.57373,0,0,0,45,0,0,0,0.96,0.3,0
0.022886,0,0,0,0,0,0,0,0,0,0,0,0,0.57253,-0.0019881,0,0.57253,0,0,0,45,0,0,0,0.98,0.3,0
0,0,0,0,0,0,0,0,0,0,0,0,0,0.57214,-1.5829e-17,0,0.57214,0,0,0,45,0,0,0,1,0.3,0
1,0,0,0,0,0,0,0,0,0,0,0,0,0.54874,3.5011e-16,0,0.54874,0,0,0,45,0,0,0,0,0.32,0
0.97805,0,0,0,0,0,0,0,0,0,0,0,0,0.54882,-0.00011178,0,0.54882,0,0,0,45,0,0,0,0.02,0.32,0
0.95609,0,0,0,0,0,0,0,0,0,0,0,0,0.54909,-0.00021342,0,0.54909,0,0,0,45,0,0,0,0.04,0.32,0
0.93412,0,0,0,0,0,0,0,0,0,0,0,0,0.54953,-0.00029445,0,0.54953,0,0,0,45,0,0,0,0.06,0.32,0
0.91213,0,0,0,0,0,0,0,0,0,0,0,0,0.55017,-0.0003437,0,0.55017,0,0,0,45,0,0,0,0.08,0.32,0
0.89011,0,0,0,0,0,0,0,0,0,0,0,0,0.55102,-0.00034891,0,0.55102,0,0,0,45,0,0,0,0.1,0.32,0
0.86805,0,0,0,0,0,0,0,0,0,0,0,0,0.55211,-0.00029627,0,0.55211,0,0,0,45,0,0,0,0.12,0.32,0
0.84594,0,0,0,0,0,0,0,0,0,0,0,0,0.55347,-0.00016986,0,0.55347,0,0,0,45,0,0,0,0.14,0.32,0
0.82377,0,0,0,0,0,0,0,0,0,0,0,0,0.55514,4.9073e-05,0,0.55514,0,0,0,45,0,0,0,0.16,0.32,0
0.80153,0,0,0,0,0,0,0,0,0,0,0,0,0.55717,0.00038293,0,0.55717,0,0,0,45,0,0,0,0.18,0.32,0
0.7792,0,0,0,0,0,0,0,0,0,0,0,0,0.55963,0.00085887,0,0.55963,0,0,0,45,0,0,0,0.2,0.32,0
0.75676,0,0,0,0,0,0,0,0,0,0,0,0,0.56261,0.00151,0,0.56261,0,0,0,45,0,0,0,0.22,0.32,0
0.73419,0,0,0,0,0,0,0,0,0,0,0,0,0.56621,0.002377,0,0.56622,0,0,0,45,0,0,0,0.24,0.32,0
0.71146,0,0,0,0,0,0,0,0,0,0,0,0,0.57056,0.0035085,0,0.57058,0,0,0,45,0,0,0,0.26,0.32,0
0.68855,0,0,0,0,0,0,0,0,0,0,0,0,0.57584,0.0049609,0,0.57586,0,0,0,45,0,0,0,0.28,0.32,0
0.6654,0,0,0,0,0,0,0,0,0,0,0,0,0.58224,0.0067925,0,0.58229,0,0,0,45,0,0,0,0.3,0.32,0
0.64197,0,0,0,0,0,0,0,0,0,0,0,0,0.59003,0.0090431,0,0.59011,0,0,0,45,0,0,0,0.32,0.32,0
0.61819,0,0,0,0,0,0,0,0,0,0,0,0,0.59948,0.011676,0,0.59962,0,0,0,45,0,0,0,0.34,0.32,0
0.59401,0,0,0,0,0,0,0,0,0,0,0,0,0.61085,0.014424,0,0.61106,0,0,0,45,0,0,0,0.36,0.32,0
0.56933,0,0,0,0,0,0,0,0,0,0,0,0,0.62386,0.016411,0,0.62412,0,0,0,45,0,0,0,0.38,0.32,0
0.5441,0,0,0,0,0,0,0,0,0,0,0,0,0.63722,0.015637,0,0.63745,0,0,0,45,0,0,0,0.4,0.32,0
0.51835,0,0,0,0,0,0,0,0,0,0,0,0,0.65109,0.017297,0,0.65139,0,0,0,45,0,0,0,0.42,0.32,0
0.50518,0,0,0,0,0,0,0,0,0,0,0,0,0.66556,0.015303,0,0.66576,0,0,0,45,0,0,0,0.44,0.32,0
0.49173,0,0,0,0,0,0,0,0,0,0,0,0,0.67673,0.0074469,0,0.67677,0,0,0,45,0,0,0,0.46,0.32,0
0.47811,0,0,0,0,0,0,0,0,0,0,0,0,0.68277,0.0016968,0,0.68277,0,0,0,45,0,0,0,0.48,0.32,0
0.46442,0,0,0,0,0,0,0,0,0,0,0,0,0.68574,-0.00073874,0,0.68574,0,0,0,45,0,0,0,0.5,0.32,0
0.45068,0,0,0,0,0,0,0,0,0,0,0,0,0.68736,-0.001671,0,0.68736,0,0,0,45,0,0,0,0.52,0.32,0
0.43692,0,0,0,0,0,0,0,0,0,0,0,0,0.68852,-0.0018709,0,0.68852,0,0,0,45,0,0,0,0.54,0.32,0
0.42314,0,0,0,0,0,0,0,0,0,0,0,0,0.68941,-0.0018493,0,0.68942,0,0,0,45,0,0,0,0.56,0.32,0
0.40935,0,0,0,0,0,0,0,0,0,0,0,0,0.69008,-0.0017867,0,0.69008,0,0,0,45,0,0,0,0.58,0.32,0
0.39554,0,0,0,0,0,0,0,0,0,0,0,0,0.6905,-0.0017006,0,0.69051,0,0,0,45,0,0,0,0.6,0.32,0
0.38172,0,0,0,0,0,0,0,0,0,0,0,0,0.69072,-0.0015389,0,0.69072,0,0,0,45,0,0,0,0.62,0.32,0
0.36791,0,0,0,0,0,0,0,0,0,0,0,0,0.6908,-0.0012862,0,0.6908,0,0,0,45,0,0,0,0.64,0.32,0
0.35409,0,0,0,0,0,0,0,0,0,0,0,0,0.69081,-0.0010371,0,0.69081,0,0,0,45,0,0,0,0.66,0.32,0
0.34028,0,0,0,0,0,0,0,0,0,0,0,0,0.69067,-0.0010995,0,0.69067,0,0,0,45,0,0,0,0.68,0.32,0
0.32647,0,0,0,0,0,0,0,0,0,0,0,0,0.68962,-0.0017337,0,0.68963,0,0,0,45,0,0,0,0.7,0.32,0
0.31269,0,0,0,0,0,0,0,0,0,0,0,0,0.68591,-0.0033215,0,0.68592,0,0,0,45,0,0,0,0.72,0.32,0
0.29903,0,0,0,0,0,0,0,0,0,0,0,0,0.65944,0.00066376,0,0.65919,0,0,0,45,0,0,0,0.74,0.32,0
0.28631,0,0,0,0,0,0,0,0,0,0,0,0,0.62891,0.022935,0,0.63033,0,0,0,45,0,0,0,0.76,0.32,0
0.26143,0,0,0,0,0,0,0,0,0,0,0,0,0.61968,-0.066181,0,0.62314,0,0,0,45,0,0,0,0.78,0.32,0
0.23674,0,0,0,0,0,0,0,0,0,0,0,0,0.6231,-0.035769,0,0.624,0,0,0,45,0,0,0,0.8,0.32,0
0.21158,0,0,0,0,0,0,0,0,0,0,0,0,0.62207,-0.023813,0,0.62255,0,0,0,45,0,0,0,0.82,0.32,0
0.18697,0,0,0,0,0,0,0,0,0,0,0,0,0.60962,-0.01741,0,0.60989,0,0,0,45,0,0,0,0.84,0.32,0
0.16281,0,0,0,0,0,0,0,0,0,0,0,0,0.59957,-0.013082,0,0.59972,0,0,0,45,0,0,0,0.86,0.32,0
0.13901,0,0,0,0,0,0,0,0,0,0,0,0,0.59171,-0.0098884,0,0.5918,0,0,0,45,0,0,0,0.88,0.32,0
0.11548,0,0,0,0,0,0,0,0,0,0,0,0,0.58566,-0.00742,0,0.58572,0,0,0,45,0,0,0,0.9,0.32,0
0.092156,0,0,0,0,0,0,0,0,0,0,0,0,0.5811,-0.0054482,0,0.58113,0,0,0,45,0,0,0,0.92,0.32,0
0.06899,0,0,0,0,0,0,0,0,0,0,0,0,0.57777,-0.0038214,0,0.57778,0,0,0,45,0,0,0,0.94,0.32,0
0.045934,0,0,0,0,0,0,0,0,0,0,0,0,0.5755,-0.0024278,0,0.57551,0,0,0,45,0,0,0,0.96,0.32,0
0.02295,0,0,0,0,0,0,0,0,0,0,0,0,0.57418,-0.0011792,0,0.57418,0,0,0,45,0,0,0,0.98,0.32,0
0,0,0,0,0,0,0,0,0,0,0,0,0,0.57375,-1.0842e-19,0,0.57375,0,0,0,45,0,0,0,1,0.32,0
1,0,0,0,0,0,0,0,0,0,0,0,0,0.54854,-3.2537e-16,0,0.54854,0,0,0,45,0,0,0,0,0.34,0
0.97806,0,0,0,0,0,0,0,0,0,0,0,0,0.54863,-0.00028683,0,0.54863,0,0,0,45,0,0,0,0.02,0.34,0
0.95611,0,0,0,0,0,0,0,0,0,0,0,0,0.5489,-0.0005683,0,0.5489,0,0,0,45,0,0,0,0.04,0.34,0
0.93415,0,0,0,0,0,0,0,0,0,0,0,0,0.54937,-0.00083893,0,0.54937,0,0,0,45,0,0,0,0.06,0.34,0
0.91216,0,0,0,0,0,0,0,0,0,0,0,0,0.55004,-0.001093,0,0.55004,0,0,0,45,0,0,0,0.08,0.34,0
0.89014,0,0,0,0,0,0,0,0,0,0,0,0,0.55092,-0.0013243,0,0.55093,0,0,0,45,0,0,0,0.1,0.34,0
0.86809,0,0,0,0,0,0,0,0,0,0,0,0,0.55206,-0.0015261,0,0.55207,0,0,0,45,0,0,0,0.12,0.34,0
0.84598,0,0,0,0,0,0,0,0,0,0,0,0,0.55349,-0.001691,0,0.55349,0,0,0,45,0,0,0,0.14,0.34,0
0.82381,0,0,0,0,0,0,0,0,0,0,0,0,0.55523,-0.0018104,0,0.55524,0,0,0,45,0,0,0,0.16,0.34,0
0.80156,0,0,0,0,0,0,0,0,0,0,0,0,0.55736,-0.0018744,0,0.55736,0,0,0,45,0,0,0,0.18,0.34,0
0.77922,0,0,0,0,0,0,0,0,0,0,0,0,0.55994,-0.0018715,0,0.55995,0,0,0,45,0,0,0,0.2,0.34,0
0.75676,0,0,0,0,0,0,0,0,0,0,0,0,0.56306,-0.0017881,0,0.56307,0,0,0,45,0,0,0,0.22,0.34,0
0.73417,0,0,0,0,0,0,0,0,0,0,0,0,0.56684,-0.001608,0,0.56684,0,0,0,45,0,0,0,0.24,0.34,0
0.71142,0,0,0,0,0,0,0,0,0,0,0,0,0.5714,-0.0013122,0,0.57141,0,0,0,45,0,0,0,0.26,0.34,0
0.68846,0,0,0,0,0,0,0,0,0,0,0,0,0.57692,-0.00087985,0,0.57693,0,0,0,45,0,0,0,0.28,0.34,0
0.66526,0,0,0,0,0,0,0,0,0,0,0,0,0.5836,-0.00029052,0,0.58361,0,0,0,45,0,0,0,0.3,0.34,0
0.64177,0,0,0,0,0,0,0,0,0,0,0,0,0.59164,0.00046589,0,0.59165,0,0,0,45,0,0,0,0.32,0.34,0
0.61793,0,0,0,0,0,0,0,0,0,0,0,0,0.60118,0.0013635,0,0.60121,0,0,0,45,0,0,0,0.34,0.34,0
0.59368,0,0,0,0,0,0,0,0,0,0,0,0,0.61217,0.0022738,0,0.6122,0,0,0,45,0,0,0,0.36,0.34,0
0.56896,0,0,0,0,0,0,0,0,0,0,0,0,0.62406,0.0028479,0,0.62409,0,0,0,45,0,0,0,0.38,0.34,0
0.54375,0,0,0,0,0,0,0,0,0,0,0,0,0.63572,0.002698,0,0.63575,0,0,0,45,0,0,0,0.4,0.34,0
0.5181,0,0,0,0,0,0,0,0,0,0,0,0,0.64787,0.0024421,0,0.64792,0,0,0,45,0,0,0,0.42,0.34,0
0.50501,0,0,0,0,0,0,0,0,0,0,0,0,0.66124,0.0014211,0,0.66128,0,0,0,45,0,0,0,0.44,0.34,0
0.49165,0,0,0,0,0,0,0,0,0,0,0,0,0.67269,-0.00071412,0,0.6727,0,0,0,45,0,0,0,0.46,0.34,0
0.47811,0,0,0,0,0,0,0,0,0,0,0,0,0.6801,-0.0022453,0,0.68011,0,0,0,45,0,0,0,0.48,0.34,0
0.46445,0,0,0,0,0,0,0,0,0,0,0,0,0.68446,-0.0029954,0,0.68447,0,0,0,45,0,0,0,0.5,0.34,0
0.45073,0,0,0,0,0,0,0,0,0,0,0,0,0.68698,-0.0031161,0,0.68699,0,0,0,45,0,0,0,0.52,0.34,0
0.43697,0,0,0,0,0,0,0,0,0,0,0,0,0.68853,-0.0029515,0,0.68854,0,0,0,45,0,0,0,0.54,0.34,0
0.42319,0,0,0,0,0,0,0,0,0,0,0,0,0.68957,-0.0026664,0,0.68957,0,0,0,45,0,0,0,0.56,0.34,0
0.40939,0,0,0,0,0,0,0,0,0,0,0,0,0.69028,-0.002344,0,0.69029,0,0,0,45,0,0,0,0.58,0.34,0
0.39558,0,0,0,0,0,0,0,0,0,0,0,0,0.69074,-0.0020055,0,0.69075,0,0,0,45,0,0,0,0.6,0.34,0
0.38176,0,0,0,0,0,0,0,0,0,0,0,0,0.69099,-0.001651,0,0.691,0,0,0,45,0,0,0,0.62,0.34,0
0.36794,0,0,0,0,0,0,0,0,0,0,0,0,0.69106,-0.0012888,0,0.69107,0,0,0,45,0,0,0,0.64,0.34,0
0.35411,0,0,0,0,0,0,0,0,0,0,0,0,0.69094,-0.00096651,0,0.69094,0,0,0,45,0,0,0,0.66,0.34,0
0.3403,0,0,0,0,0,0,0,0,0,0,0,0,0.69049,-0.00076201,0,0.69049,0,0,0,45,0,0,0,0.68,0.34,0
0.32649,0,0,0,0,0,0,0,0,0,0,0,0,0.68967,-0.00078469,0,0.68967,0,0,0,45,0,0,0,0.7,0.34,0
0.31271,0,0,0,0,0,0,0,0,0,0,0,0,0.68978,-0.00038527,0,0.68978,0,0,0,45,0,0,0,0.72,0.34,0
0.2989,0,0,0,0,0,0,0,0,0,0,0,0,0.70669,0.00337,0,0.70648,0,0,0,45,0,0,0,0.74,0.34,0
0.28444,0,0,0,0,0,0,0,0,0,0,0,0,0.63829,0.039154,0,0.63846,0,0,0,45,0,0,0,0.76,0.34,0
0.26537,0,0,0,0,0,0,0,0,0,0,0,0,0.78556,-0.032426,0,0.78769,0,0,0,45,0,0,0,0.78,0.34,0
0.23785,0,0,0,0,0,0,0,0,0,0,0,0,0.66393,-0.013583,0,0.66406,0,0,0,45,0,0,0,0.8,0.34,0
0.21226,0,0,0,0,0,0,0,0,0,0,0,0,0.63004,-0.0080998,0,0.63015,0,0,0,45,0,0,0,0.82,0.34,0
0.18745,0,0,0,0,0,0,0,0,0,0,0,0,0.61369,-0.0055501,0,0.61375,0,0,0,45,0,0,0,0.84,0.34,0
0.16316,0,0,0,0,0,0,0,0,0,0,0,0,0.60222,-0.0040017,0,0.60225,0,0,0,45,0,0,0,0.86,0.34,0
0.13927,0,0,0,0,0,0,0,0,0,0,0,0,0.59365,-0.0029148,0,0.59367,0,0,0,45,0,0,0,0.88,0.34,0
0.11567,0,0,0,0,0,0,0,0,0,0,0,0,0.58716,-0.0021107,0,0.58717,0,0,0,45,0,0,0,0.9,0.34,0
0.092297,0,0,0,0,0,0,0,0,0,0,0,0,0.5823,-0.0014985,0,0.5823,0,0,0,45,0,0,0,0.92,0.34,0
0.069088,0,0,0,0,0,0,0,0,0,0,0,0,0.57876,-0.00102,0,0.57876,0,0,0,45,0,0,0,0.94,0.34,0
0.045997,0,0,0,0,0,0,0,0,0,0,0,0,0.57635,-0.00063283,0,0.57635,0,0,0,45,0,0,0,0.96,0.34,0
0.02298,0,0,0,0,0,0,0,0,0,0,0,0,0.57496,-0.00030267,0,0.57496,0,0,0,45,0,0,0,0.98,0.34,0
0,0,0,0,0,0,0,0,0,0,0,0,0,0.5745,2.0735e-18,0,0.5745,0,0,0,45,0,0,0,1,0.34,0
1,0,0,0,0,0,0,0,0,0,0,0,0,0.54816,-5.9387e-16,0,0.54816,0,0,0,45,0,0,0,0,0.36,0
0.97807,0,0,0,0,0,0,0,0,0,0,0,0,0.54826,-0.00046719,0,0.54826,0,0,0,45,0,0,0,0.02,0.36,0
0.95614,0,0,0,0,0,0,0,0,0,0,0,0,0.54853,-0.00093393,0,0.54853,0,0,0,45,0,0,0,0.04,0.36,0
0.93419,0,0,0,0,0,0,0,0,0,0,0,0,0.549,-0.0013999,0,0.54901,0,0,0,45,0,0,0,0.06,0.36,0
0.91222,0,0,0,0,0,0,0,0,0,0,0,0,0.54968,-0.0018648,0,0.54969,0,0,0,45,0,0,0,0.08,0.36,0
0.89022,0,0,0,0,0,0,0,0,0,0,0,0,0.55059,-0.0023289,0,0.55059,0,0,0,45,0,0,0,0.1,0.36,0
0.86817,0,0,0,0,0,0,0,0,0,0,0,0,0.55174,-0.0027926,0,0.55175,0,0,0,45,0,0,0,0.12,0.36,0
0.84608,0,0,0,0,0,0,0,0,0,0,0,0,0.55318,-0.0032573,0,0.55319,0,0,0,45,0,0,0,0.14,0.36,0
0.82392,0,0,0,0,0,0,0,0,0,0,0,0,0.55495,-0.0037246,0,0.55497,0,0,0,45,0,0,0,0.16,0.36,0
0.80168,0,0,0,0,0,0,0,0,0,0,0,0,0.55711,-0.0041979,0,0.55712,0,0,0,45,0,0,0,0.18,0.36,0
0.77935,0,0,0,0,0,0,0,0,0,0,0,0,0.55972,-0.0046816,0,0.55974,0,0,0,45,0,0,0,0.2,0.36,0
0.7569,0,0,0,0,0,0,0,0,0,0,0,0,0.56287,-0.005182,0,0.5629,0,0,0,45,0,0,0,0.22,0.36,0
0.73432,0,0,0,0,0,0,0,0,0,0,0,0,0.56668,-0.0057076,0,0.56672,0,0,0,45,0,0,0,0.24,0.36,0
0.71157,0,0,0,0,0,0,0,0,0,0,0,0,0.57129,-0.0062693,0,0.57133,0,0,0,45,0,0,0,0.26,0.36,0
0.68862,0,0,0,0,0,0,0,0,0,0,0,0,0.57686,-0.0068795,0,0.57691,0,0,0,45,0,0,0,0.28,0.36,0
0.66542,0,0,0,0,0,0,0,0,0,0,0,0,0.58359,-0.0075491,0,0.58365,0,0,0,45,0,0,0,0.3,0.36,0
0.64193,0,0,0,0,0,0,0,0,0,0,0,0,0.59168,-0.0082781,0,0.59176,0,0,0,45,0,0,0,0.32,0.36,0
0.61808,0,0,0,0,0,0,0,0,0,0,0,0,0.60129,-0.00903,0,0.60138,0,0,0,45,0,0,0,0.34,0.36,0
0.59383,0,0,0,0,0,0,0,0,0,0,0,0,0.61234,-0.0096664,0,0.61244,0,0,0,45,0,0,0,0.36,0.36,0
0.5691,0,0,0,0,0,0,0,0,0,0,0,0,0.62428,-0.0098347,0,0.6244,0,0,0,45,0,0,0,0.38,0.36,0
0.54388,0,0,0,0,0,0,0,0,0,0,0,0,0.636,-0.0091595,0,0.63609,0,0,0,45,0,0,0,0.4,0.36,0
0.51822,0,0,0,0,0,0,0,0,0,0,0,0,0.64819,-0.011216,0,0.64833,0,0,0,45,0,0,0,0.42,0.36,0
0.50512,0,0,0,0,0,0,0,0,0,0,0,0,0.66159,-0.012444,0,0.66174,0,0,0,45,0,0,0,0.44,0.36,0
0.49175,0,0,0,0,0,0,0,0,0,0,0,0,0.67306,-0.0095878,0,0.67314,0,0,0,45,0,0,0,0.46,0.36,0
0.4782,0,0,0,0,0,0,0,0,0,0,0,0,0.68049,-0.0073038,0,0.68053,0,0,0,45,0,0,0,0.48,0.36,0
0.46454,0,0,0,0,0,0,0,0,0,0,0,0,0.68487,-0.0057665,0,0.68489,0,0,0,45,0,0,0,0.5,0.36,0
0.45081,0,0,0,0,0,0,0,0,0,0,0,0,0.6874,-0.0048186,0,0.68742,0,0,0,45,0,0,0,0.52,0.36,0
0.43704,0,0,0,0,0,0,0,0,0,0,0,0,0.68897,-0.0041163,0,0.68898,0,0,0,45,0,0,0,0.54,0.36,0
0.42325,0,0,0,0,0,0,0,0,0,0,0,0,0.69002,-0.0035031,0,0.69003,0,0,0,45,0,0,0,0.56,0.36,0
0.40944,0,0,0,0,0,0,0,0,0,0,0,0,0.69074,-0.0029096,0,0.69075,0,0,0,45,0,0,0,0.58,0.36,0
0.39562,0,0,0,0,0,0,0,0,0,0,0,0,0.6912,-0.0023305,0,0.6912,0,0,0,45,0,0,0,0.6,0.36,0
0.38179,0,0,0,0,0,0,0,0,0,0,0,0,0.69143,-0.001783,0,0.69144,0,0,0,45,0,0,0,0.62,0.36,0
0.36796,0,0,0,0,0,0,0,0,0,0,0,0,0.69149,-0.0012748,0,0.69149,0,0,0,45,0,0,0,0.64,0.36,0
0.35413,0,0,0,0,0,0,0,0,0,0,0,0,0.69133,-0.00077263,0,0.69133,0,0,0,45,0,0,0,0.66,0.36,0
0.34031,0,0,0,0,0,0,0,0,0,0,0,0,0.69085,-0.00021099,0,0.69085,0,0,0,45,0,0,0,0.68,0.36,0
0.3265,0,0,0,0,0,0,0,0,0,0,0,0,0.69,0.00050905,0,0.69,0,0,0,45,0,0,0,0.7,0.36,0
0.31271,0,0,0,0,0,0,0,0,0,0,0,0,0.69006,0.00072637,0,0.69006,0,0,0,45,0,0,0,0.72,0.36,0
0.2989,0,0,0,0,0,0,0,0,0,0,0,0,0.70686,-0.0025115,0,0.70665,0,0,0,45,0,0,0,0.74,0.36,0
0.28443,0,0,0,0,0,0,0,0,0,0,0,0,0.63841,-0.03823,0,0.63851,0,0,0,45,0,0,0,0.76,0.36,0
0.26536,0,0,0,0,0,0,0,0,0,0,0,0,0.78576,0.033626,0,0.78795,0,0,0,45,0,0,0,0.78,0.36,0
0.23783,0,0,0,0,0,0,0,0,0,0,0,0,0.66409,0.014802,0,0.66425,0,0,0,45,0,0,0,0.8,0.36,0
0.21223,0,0,0,0,0,0,0,0,0,0,0,0,0.6301,0.0094957,0,0.63023,0,0,0,45,0,0,0,0.82,0.36,0
0.18742,0,0,0,0,0,0,0,0,0,0,0,0,0.61371,0.0070292,0,0.61379,0,0,0,45,0,0,0,0.84,0.36,0
0.16314,0,0,0,0,0,0,0,0,0,0,0,0,0.6022,0.0054812,0,0.60224,0,0,0,45,0,0,0,0.86,0.36,0
0.13924,0,0,0,0,0,0,0,0,0,0,0,0,0.5936,0.0043217,0,0.59362,0,0,0,45,0,0,0,0.88,0.36,0
0.11565,0,0,0,0,0,0,0,0,0,0,0,0,0.58708,0.0033819,0,0.5871,0,0,0,45,0,0,0,0.9,0.36,0
0.092276,0,0,0,0,0,0,0,0,0,0,0,0,0.58219,0.0025806,0,0.5822,0,0,0,45,0,0,0,0.92,0.36,0
0.069071,0,0,0,0,0,0,0,0,0,0,0,0,0.57863,0.00187,0,0.57864,0,0,0,45,0,0,0,0.94,0.36,0
0.045985,0,0,0,0,0,0,0,0,0,0,0,0,0.57622,0.0012178,0,0.57622,0,0,0,45,0,0,0,0.96,0.36,0
0.022974,0,0,0,0,0,0,0,0,0,0,0,0,0.57481,0.00060068,0,0.57481,0,0,0,45,0,0,0,0.98,0.36,0
0,0,0,0,0,0,0,0,0,0,0,0,0,0.57435,-6.844e-18,0,0.57435,0,0,0,45,0,0,0,1,0.36,0
1,0,0,0,0,0,0,0,0,0,0,0,0,0.54761,8.5245e-16,0,0.54761,0,0,0,45,0,0,0,0,0.38,0
0.9781,0,0,0,0,0,0,0,0,0,0,0,0,0.5477,-0.00064803,0,0.5477,0,0,0,45,0,0,0,0.02,0.38,0
0.95618,0,0,0,0,0,0,0,0,0,0,0,0,0.54797,-0.0013004,0,0.54797,0,0,0,45,0,0,0,0.04,0.38,0
0.93426,0,0,0,0,0,0,0,0,0,0,0,0,0.54844,-0.0019619,0,0.54844,0,0,0,45,0,0,0,0.06,0.38,0
0.91231,0,0,0,0,0,0,0,0,0,0,0,0,0.54911,-0.0026377,0,0.54911,0,0,0,45,0,0,0,0.08,0.38,0
0.89033,0,0,0,0,0,0,0,0,0,0,0,0,0.55,-0.003334,0,0.55001,0,0,0,45,0,0,0,0.1,0.38,0
0.86831,0,0,0,0,0,0,0,0,0,0,0,0,0.55114,-0.0040586,0,0.55115,0,0,0,45,0,0,0,0.12,0.38,0
0.84624,0,0,0,0,0,0,0,0,0,0,0,0,0.55255,-0.004821,0,0.55257,0,0,0,45,0,0,0,0.14,0.38,0
0.8241,0,0,0,0,0,0,0,0,0,0,0,0,0.55429,-0.0056335,0,0.55432,0,0,0,45,0,0,0,0.16,0.38,0
0.8019,0,0,0,0,0,0,0,0,0,0,0,0,0.5564,-0.0065117,0,0.55644,0,0,0,45,0,0,0,0.18,0.38,0
0.77959,0,0,0,0,0,0,0,0,0,0,0,0,0.55896,-0.0074757,0,0.55901,0,0,0,45,0,0,0,0.2,0.38,0
0.75718,0,0,0,0,0,0,0,0,0,0,0,0,0.56204,-0.0085515,0,0.5621,0,0,0,45,0,0,0,0.22,0.38,0
0.73463,0,0,0,0,0,0,0,0,0,0,0,0,0.56575,-0.009772,0,0.56584,0,0,0,45,0,0,0,0.24,0.38,0
0.71192,0,0,0,0,0,0,0,0,0,0,0,0,0.57023,-0.011178,0,0.57034,0,0,0,45,0,0,0,0.26,0.38,0
0.68901,0,0,0,0,0,0,0,0,0,0,0,0,0.57564,-0.012818,0,0.57579,0,0,0,45,0,0,0,0.28,0.38,0
0.66587,0,0,0,0,0,0,0,0,0,0,0,0,0.5822,-0.01474,0,0.5824,0,0,0,45,0,0,0,0.3,0.38,0
0.64244,0,0,0,0,0,0,0,0,0,0,0,0,0.59016,-0.016974,0,0.59042,0,0,0,45,0,0,0,0.32,0.38,0
0.61865,0,0,0,0,0,0,0,0,0,0,0,0,0.5998,-0.019472,0,0.60013,0,0,0,45,0,0,0,0.34,0.38,0
0.59445,0,0,0,0,0,0,0,0,0,0,0,0,0.61137,-0.021953,0,0.61179,0,0,0,45,0,0,0,0.36,0.38,0
0.56975,0,0,0,0,0,0,0,0,0,0,0,0,0.62456,-0.023526,0,0.62505,0,0,0,45,0,0,0,0.38,0.38,0
0.54449,0,0,0,0,0,0,0,0,0,0,0,0,0.63808,-0.022192,0,0.6385,0,0,0,45,0,0,0,0.4,0.38,0
0.5187,0,0,0,0,0,0,0,0,0,0,0,0,0.65206,-0.02613,0,0.65269,0,0,0,45,0,0,0,0.42,0.38,0
0.50551,0,0,0,0,0,0,0,0,0,0,0,0,0.66661,-0.026362,0,0.66716,0,0,0,45,0,0,0,0.44,0.38,0
0.49204,0,0,0,0,0,0,0,0,0,0,0,0,0.67783,-0.017774,0,0.67807,0,0,0,45,0,0,0,0.46,0.38,0
0.4784,0,0,0,0,0,0,0,0,0,0,0,0,0.68392,-0.01128,0,0.68401,0,0,0,45,0,0,0,0.48,0.38,0
0.46468,0,0,0,0,0,0,0,0,0,0,0,0,0.68695,-0.0080673,0,0.687,0,0,0,45,0,0,0,0.5,0.38,0
0.45092,0,0,0,0,0,0,0,0,0,0,0,0,0.68863,-0.0063059,0,0.68866,0,0,0,45,0,0,0,0.52,0.38,0
0.43713,0,0,0,0,0,0,0,0,0,0,0,0,0.68985,-0.0052298,0,0.68986,0,0,0,45,0,0,0,0.54,0.38,0
0.42333,0,0,0,0,0,0,0,0,0,0,0,0,0.69078,-0.0043388,0,0.69079,0,0,0,45,0,0,0,0.56,0.38,0
0.4095,0,0,0,0,0,0,0,0,0,0,0,0,0.69146,-0.0034685,0,0.69146,0,0,0,45,0,0,0,0.58,0.38,0
0.39567,0,0,0,0,0,0,0,0,0,0,0,0,0.69187,-0.0026197,0,0.69187,0,0,0,45,0,0,0,0.6,0.38,0
0.38183,0,0,0,0,0,0,0,0,0,0,0,0,0.69205,-0.0018629,0,0.69205,0,0,0,45,0,0,0,0.62,0.38,0
0.36799,0,0,0,0,0,0,0,0,0,0,0,0,0.69207,-0.0012306,0,0.69207,0,0,0,45,0,0,0,0.64,0.38,0
0.35414,0,0,0,0,0,0,0,0,0,0,0,0,0.692,-0.00064311,0,0.692,0,0,0,45,0,0,0,0.66,0.38,0
0.34031,0,0,0,0,0,0,0,0,0,0,0,0,0.69177,0.00019576,0,0.69177,0,0,0,45,0,0,0,0.68,0.38,0
0.32647,0,0,0,0,0,0,0,0,0,0,0,0,0.69061,0.0015362,0,0.69061,0,0,0,45,0,0,0,0.7,0.38,0
0.31268,0,0,0,0,0,0,0,0,0,0,0,0,0.68676,0.003757,0,0.68677,0,0,0,45,0,0,0,0.72,0.38,0
0.299,0,0,0,0,0,0,0,0,0,0,0,0,0.66014,0.00032009,0,0.65989,0,0,0,45,0,0,0,0.74,0.38,0
0.28628,0,0,0,0,0,0,0,0,0,0,0,0,0.62946,-0.021816,0,0.63084,0,0,0,45,0,0,0,0.76,0.38,0
0.26137,0,0,0,0,0,0,0,0,0,0,0,0,0.62012,0.067302,0,0.62369,0,0,0,45,0,0,0,0.78,0.38,0
0.23667,0,0,0,0,0,0,0,0,0,0,0,0,0.62343,0.037094,0,0.62441,0,0,0,45,0,0,0,0.8,0.38,0
0.2115,0,0,0,0,0,0,0,0,0,0,0,0,0.62227,0.025302,0,0.62281,0,0,0,45,0,0,0,0.82,0.38,0
0.18688,0,0,0,0,0,0,0,0,0,0,0,0,0.60968,0.018972,0,0.60999,0,0,0,45,0,0,0,0.84,0.38,0
0.16273,0,0,0,0,0,0,0,0,0,0,0,0,0.59951,0.014635,0,0.5997,0,0,0,45,0,0,0,0.86,0.38,0
0.13892,0,0,0,0,0,0,0,0,0,0,0,0,0.59155,0.011359,0,0.59167,0,0,0,45,0,0,0,0.88,0.38,0
0.1154,0,0,0,0,0,0,0,0,0,0,0,0,0.58542,0.0087446,0,0.58549,0,0,0,45,0,0,0,0.9,0.38,0
0.092091,0,0,0,0,0,0,0,0,0,0,0,0,0.58078,0.0065737,0,0.58082,0,0,0,45,0,0,0,0.92,0.38,0
0.068939,0,0,0,0,0,0,0,0,0,0,0,0,0.57739,0.0047041,0,0.57742,0,0,0,45,0,0,0,0.94,0.38,0
0.045899,0,0,0,0,0,0,0,0,0,0,0,0,0.57508,0.0030349,0,0.57509,0,0,0,45,0,0,0,0.96,0.38,0
0.022932,0,0,0,0,0,0,0,0,0,0,0,0,0.57374,0.0014883,0,0.57374,0,0,0,45,0,0,0,0.98,0.38,0
0,0,0,0,0,0,0,0,0,0,0,0,0,0.5733,3.0358e-18,0,0.5733,0,0,0,45,0,0,0,1,0.38,0
1,0,0,0,0,0,0,0,0,0,0,0,0,0.54687,4.7298e-16,0,0.54687,0,0,0,45,0,0,0,0,0.4,0
0.97813,0,0,0,0,0,0,0,0,0,0,0,0,0.54695,-0.00082459,0,0.54696,0,0,0,45,0,0,0,0.02,0.4,0
0.95624,0,0,0,0,0,0,0,0,0,0,0,0,0.54722,-0.0016581,0,0.54722,0,0,0,45,0,0,0,0.04,0.4,0
0.93435,0,0,0,0,0,0,0,0,0,0,0,0,0.54767,-0.0025099,0,0.54767,0,0,0,45,0,0,0,0.06,0.4,0
0.91243,0,0,0,0,0,0,0,0,0,0,0,0,0.54831,-0.0033904,0,0.54832,0,0,0,45,0,0,0,0.08,0.4,0
0.89048,0,0,0,0,0,0,0,0,0,0,0,0,0.54917,-0.0043115,0,0.54918,0,0,0,45,0,0,0,0.1,0.4,0
0.8685,0,0,0,0,0,0,0,0,0,0,0,0,0.55025,-0.0052876,0,0.55028,0,0,0,45,0,0,0,0.12,0.4,0
0.84646,0,0,0,0,0,0,0,0,0,0,0,0,0.55161,-0.0063359,0,0.55164,0,0,0,45,0,0,0,0.14,0.4,0
0.82437,0,0,0,0,0,0,0,0,0,0,0,0,0.55326,-0.0074781,0,0.55331,0,0,0,45,0,0,0,0.16,0.4,0
0.8022,0,0,0,0,0,0,0,0,0,0,0,0,0.55526,-0.0087414,0,0.55533,0,0,0,45,0,0,0,0.18,0.4,0
0.77995,0,0,0,0,0,0,0,0,0,0,0,0,0.55768,-0.01016,0,0.55777,0,0,0,45,0,0,0,0.2,0.4,0
0.75759,0,0,0,0,0,0,0,0,0,0,0,0,0.56058,-0.011779,0,0.5607,0,0,0,45,0,0,0,0.22,0.4,0
0.7351,0,0,0,0,0,0,0,0,0,0,0,0,0.56406,-0.013654,0,0.56423,0,0,0,45,0,0,0,0.24,0.4,0
0.71246,0,0,0,0,0,0,0,0,0,0,0,0,0.56824,-0.015855,0,0.56847,0,0,0,45,0,0,0,0.26,0.4,0
0.68964,0,0,0,0,0,0,0,0,0,0,0,0,0.5733,-0.01847,0,0.5736,0,0,0,45,0,0,0,0.28,0.4,0
0.6666,0,0,0,0,0,0,0,0,0,0,0,0,0.57943,-0.0216,0,0.57984,0,0,0,45,0,0,0,0.3,0.4,0
0.64329,0,0,0,0,0,0,0,0,0,0,0,0,0.58695,-0.025348,0,0.58751,0,0,0,45,0,0,0,0.32,0.4,0
0.61964,0,0,0,0,0,0,0,0,0,0,0,0,0.59631,-0.029773,0,0.59707,0,0,0,45,0,0,0,0.34,0.4,0
0.59558,0,0,0,0,0,0,0,0,0,0,0,0,0.60828,-0.034751,0,0.60931,0,0,0,45,0,0,0,0.36,0.4,0
0.57098,0,0,0,0,0,0,0,0,0,0,0,0,0.62405,-0.039573,0,0.62536,0,0,0,45,0,0,0,0.38,0.4,0
0.54566,0,0,0,0,0,0,0,0,0,0,0,0,0.6421,-0.041079,0,0.64351,0,0,0,45,0,0,0,0.4,0.4,0
0.51961,0,0,0,0,0,0,0,0,0,0,0,0,0.66144,-0.0442,0,0.66312,0,0,0,45,0,0,0,0.42,0.4,0
0.50618,0,0,0,0,0,0,0,0,0,0,0,0,0.67866,-0.042387,0,0.67998,0,0,0,45,0,0,0,0.44,0.4,0
0.49247,0,0,0,0,0,0,0,0,0,0,0,0,0.68814,-0.019973,0,0.68839,0,0,0,45,0,0,0,0.46,0.4,0
0.47865,0,0,0,0,0,0,0,0,0,0,0,0,0.69019,-0.012857,0,0.69031,0,0,0,45,0,0,0,0.48,0.4,0
0.46486,0,0,0,0,0,0,0,0,0,0,0,0,0.68984,-0.0089074,0,0.6899,0,0,0,45,0,0,0,0.5,0.4,0
0.45106,0,0,0,0,0,0,0,0,0,0,0,0,0.69024,-0.0072991,0,0.69028,0,0,0,45,0,0,0,0.52,0.4,0
0.43725,0,0,0,0,0,0,0,0,0,0,0,0,0.69094,-0.006242,0,0.69097,0,0,0,45,0,0,0,0.54,0.4,0
0.42342,0,0,0,0,0,0,0,0,0,0,0,0,0.69178,-0.0052148,0,0.6918,0,0,0,45,0,0,0,0.56,0.4,0
0.40958,0,0,0,0,0,0,0,0,0,0,0,0,0.69246,-0.0040262,0,0.69247,0,0,0,45,0,0,0,0.58,0.4,0
0.39572,0,0,0,0,0,0,0,0,0,0,0,0,0.6928,-0.0028053,0,0.69281,0,0,0,45,0,0,0,0.6,0.4,0
0.38187,0,0,0,0,0,0,0,0,0,0,0,0,0.69282,-0.0017717,0,0.69283,0,0,0,45,0,0,0,0.62,0.4,0
0.36801,0,0,0,0,0,0,0,0,0,0,0,0,0.69271,-0.0010879,0,0.69271,0,0,0,45,0,0,0,0.64,0.4,0
0.35416,0,0,0,0,0,0,0,0,0,0,0,0,0.69276,-0.0006485,0,0.69276,0,0,0,45,0,0,0,0.66,0.4,0
0.3403,0,0,0,0,0,0,0,0,0,0,0,0,0.69303,-0.00011525,0,0.69303,0,0,0,45,0,0,0,0.68,0.4,0
0.32644,0,0,0,0,0,0,0,0,0,0,0,0,0.69356,0.0019113,0,0.69356,0,0,0,45,0,0,0,0.7,0.4,0
0.31256,0,0,0,0,0,0,0,0,0,0,0,0,0.68885,0.0055167,0,0.68884,0,0,0,45,0,0,0,0.72,0.4,0
0.29888,0,0,0,0,0,0,0,0,0,0,0,0,0.67401,0.022048,0,0.67449,0,0,0,45,0,0,0,0.74,0.4,0
0.2856,0,0,0,0,0,0,0,0,0,0,0,0,0.65241,0.035954,0,0.65352,0,0,0,45,0,0,0,0.76,0.4,0
0.25998,0,0,0,0,0,0,0,0,0,0,0,0,0.63422,0.044131,0,0.63578,0,0,0,45,0,0,0,0.78,0.4,0
0.23486,0,0,0,0,0,0,0,0,0,0,0,0,0.62209,0.048032,0,0.62394,0,0,0,45,0,0,0,0.8,0.4,0
0.21021,0,0,0,0,0,0,0,0,0,0,0,0,0.61198,0.037693,0,0.61315,0,0,0,45,0,0,0,0.82,0.4,0
0.1859,0,0,0,0,0,0,0,0,0,0,0,0,0.60305,0.029296,0,0.60377,0,0,0,45,0,0,0,0.84,0.4,0
0.16196,0,0,0,0,0,0,0,0,0,0,0,0,0.59459,0.022842,0,0.59503,0,0,0,45,0,0,0,0.86,0.4,0
0.13833,0,0,0,0,0,0,0,0,0,0,0,0,0.58771,0.017777,0,0.58798,0,0,0,45,0,0,0,0.88,0.4,0
0.11495,0,0,0,0,0,0,0,0,0,0,0,0,0.5823,0.013686,0,0.58246,0,0,0,45,0,0,0,0.9,0.4,0
0.09175,0,0,0,0,0,0,0,0,0,0,0,0,0.57815,0.010278,0,0.57824,0,0,0,45,0,0,0,0.92,0.4,0
0.068695,0,0,0,0,0,0,0,0,0,0,0,0,0.5751,0.0073452,0,0.57514,0,0,0,45,0,0,0,0.94,0.4,0
0.045742,0,0,0,0,0,0,0,0,0,0,0,0,0.573,0.0047334,0,0.57302,0,0,0,45,0,0,0,0.96,0.4,0
0.022855,0,0,0,0,0,0,0,0,0,0,0,0,0.57178,0.0023195,0,0.57178,0,0,0,45,0,0,0,0.98,0.4,0
0,0,0,0,0,0,0,0,0,0,0,0,0,0.57138,-6.1799e-18,0,0.57137,0,0,0,45,0,0,0,1,0.4,0
1,0,0,0,0,0,0,0,0,0,0,0,0,0.54596,-8.0009e-16,0,0.54596,0,0,0,45,0,0,0,0,0.42,0
0.97816,0,0,0,0,0,0,0,0,0,0,0,0,0.54604,-0.0009924,0,0.54604,0,0,0,45,0,0,0,0.02,0.42,0
0.95632,0,0,0,0,0,0,0,0,0,0,0,0,0.54629,-0.0019978,0,0.54629,0,0,0,45,0,0,0,0.04,0.42,0
0.93446,0,0,0,0,0,0,0,0,0,0,0,0,0.5467,-0.0030297,0,0.54671,0,0,0,45,0,0,0,0.06,0.42,0
0.91258,0,0,0,0,0,0,0,0,0,0,0,0,0.54731,-0.0041032,0,0.54732,0,0,0,45,0,0,0,0.08,0.42,0
0.89067,0,0,0,0,0,0,0,0,0,0,0,0,0.5481,-0.0052351,0,0.54812,0,0,0,45,0,0,0,0.1,0.42,0
0.86873,0,0,0,0,0,0,0,0,0,0,0,0,0.54911,-0.0064456,0,0.54915,0,0,0,45,0,0,0,0.12,0.42,0
0.84675,0,0,0,0,0,0,0,0,0,0,0,0,0.55036,-0.0077587,0,0.55042,0,0,0,45,0,0,0,0.14,0.42,0
0.8247,0,0,0,0,0,0,0,0,0,0,0,0,0.55188,-0.009204,0,0.55196,0,0,0,45,0,0,0,0.16,0.42,0
0.80259,0,0,0,0,0,0,0,0,0,0,0,0,0.55372,-0.010819,0,0.55383,0,0,0,45,0,0,0,0.18,0.42,0
0.78041,0,0,0,0,0,0,0,0,0,0,0,0,0.55592,-0.012649,0,0.55606,0,0,0,45,0,0,0,0.2,0.42,0
0.75812,0,0,0,0,0,0,0,0,0,0,0,0,0.55854,-0.014756,0,0.55874,0,0,0,45,0,0,0,0.22,0.42,0
0.73572,0,0,0,0,0,0,0,0,0,0,0,0,0.56167,-0.017214,0,0.56194,0,0,0,45,0,0,0,0.24,0.42,0
0.71319,0,0,0,0,0,0,0,0,0,0,0,0,0.56541,-0.020123,0,0.56577,0,0,0,45,0,0,0,0.26,0.42,0
0.69049,0,0,0,0,0,0,0,0,0,0,0,0,0.5699,-0.023609,0,0.57039,0,0,0,45,0,0,0,0.28,0.42,0
0.6676,0,0,0,0,0,0,0,0,0,0,0,0,0.57532,-0.027835,0,0.576,0,0,0,45,0,0,0,0.3,0.42,0
0.64446,0,0,0,0,0,0,0,0,0,0,0,0,0.58198,-0.033007,0,0.58293,0,0,0,45,0,0,0,0.32,0.42,0
0.62104,0,0,0,0,0,0,0,0,0,0,0,0,0.5904,-0.039387,0,0.59172,0,0,0,45,0,0,0,0.34,0.42,0
0.59723,0,0,0,0,0,0,0,0,0,0,0,0,0.60156,-0.047291,0,0.60344,0,0,0,45,0,0,0,0.36,0.42,0
0.57291,0,0,0,0,0,0,0,0,0,0,0,0,0.61823,-0.057032,0,0.6209,0,0,0,45,0,0,0,0.38,0.42,0
0.54777,0,0,0,0,0,0,0,0,0,0,0,0,0.64818,-0.068762,0,0.65198,0,0,0,45,0,0,0,0.4,0.42,0
0.52106,0,0,0,0,0,0,0,0,0,0,0,0,0.68022,-0.10599,0,0.68979,0,0,0,45,0,0,0,0.42,0.42,0
0.50721,0,0,0,0,0,0,0,0,0,0,0,0,0.70557,-0.02069,0,0.70505,0,0,0,45,0,0,0,0.44,0.42,0
0.49283,0,0,0,0,0,0,0,0,0,0,0,0,0.70736,-0.019196,0,0.70756,0,0,0,45,0,0,0,0.46,0.42,0
0.47891,0,0,0,0,0,0,0,0,0,0,0,0,0.69499,-0.009237,0,0.69505,0,0,0,45,0,0,0,0.48,0.42,0
0.46503,0,0,0,0,0,0,0,0,0,0,0,0,0.69251,-0.0084255,0,0.69256,0,0,0,45,0,0,0,0.5,0.42,0
0.45121,0,0,0,0,0,0,0,0,0,0,0,0,0.6913,-0.0077872,0,0.69134,0,0,0,45,0,0,0,0.52,0.42,0
0.43738,0,0,0,0,0,0,0,0,0,0,0,0,0.69193,-0.0074275,0,0.69197,0,0,0,45,0,0,0,0.54,0.42,0
0.42353,0,0,0,0,0,0,0,0,0,0,0,0,0.69299,-0.0063331,0,0.69302,0,0,0,45,0,0,0,0.56,0.42,0
0.40966,0,0,0,0,0,0,0,0,0,0,0,0,0.69386,-0.0046522,0,0.69388,0,0,0,45,0,0,0,0.58,0.42,0
0.39578,0,0,0,0,0,0,0,0,0,0,0,0,0.69412,-0.0027771,0,0.69413,0,0,0,45,0,0,0,0.6,0.42,0
0.3819,0,0,0,0,0,0,0,0,0,0,0,0,0.69377,-0.001264,0,0.69377,0,0,0,45,0,0,0,0.62,0.42,0
0.36803,0,0,0,0,0,0,0,0,0,0,0,0,0.6932,-0.00052606,0,0.6932,0,0,0,45,0,0,0,0.64,0.42,0
0.35417,0,0,0,0,0,0,0,0,0,0,0,0,0.69297,-0.00075621,0,0.69297,0,0,0,45,0,0,0,0.66,0.42,0
0.34031,0,0,0,0,0,0,0,0,0,0,0,0,0.69433,-0.0010247,0,0.69433,0,0,0,45,0,0,0,0.68,0.42,0
0.3264,0,0,0,0,0,0,0,0,0,0,0,0,0.69624,-0.0014928,0,0.69625,0,0,0,45,0,0,0,0.7,0.42,0
0.31246,0,0,0,0,0,0,0,0,0,0,0,0,0.7069,0.0069172,0,0.70687,0,0,0,45,0,0,0,0.72,0.42,0
0.29812,0,0,0,0,0,0,0,0,0,0,0,0,0.70256,0.0091366,0,0.70169,0,0,0,45,0,0,0,0.74,0.42,0
0.28436,0,0,0,0,0,0,0,0,0,0,0,0,0.67551,0.098913,0,0.68403,0,0,0,45,0,0,0,0.76,0.42,0
0.25784,0,0,0,0,0,0,0,0,0,0,0,0,0.64418,0.067599,0,0.64784,0,0,0,45,0,0,0,0.78,0.42,0
0.23282,0,0,0,0,0,0,0,0,0,0,0,0,0.61699,0.057651,0,0.6197,0,0,0,45,0,0,0,0.8,0.42,0
0.20848,0,0,0,0,0,0,0,0,0,0,0,0,0.60353,0.047486,0,0.6054,0,0,0,45,0,0,0,0.82,0.42,0
0.18454,0,0,0,0,0,0,0,0,0,0,0,0,0.59483,0.037716,0,0.59602,0,0,0,45,0,0,0,0.84,0.42,0
0.1609,0,0,0,0,0,0,0,0,0,0,0,0,0.58799,0.029721,0,0.58874,0,0,0,45,0,0,0,0.86,0.42,0
0.1375,0,0,0,0,0,0,0,0,0,0,0,0,0.58239,0.023263,0,0.58286,0,0,0,45,0,0,0,0.88,0.42,0
0.11431,0,0,0,0,0,0,0,0,0,0,0,0,0.57792,0.017969,0,0.5782,0,0,0,45,0,0,0,0.9,0.42,0
0.091269,0,0,0,0,0,0,0,0,0,0,0,0,0.57444,0.013522,0,0.5746,0,0,0,45,0,0,0,0.92,0.42,0
0.068351,0,0,0,0,0,0,0,0,0,0,0,0,0.57185,0.0096761,0,0.57193,0,0,0,45,0,0,0,0.94,0.42,0
0.04552,0,0,0,0,0,0,0,0,0,0,0,0,0.57006,0.0062402,0,0.57009,0,0,0,45,0,0,0,0.96,0.42,0
0.022746,0,0,0,0,0,0,0,0,0,0,0,0,0.56901,0.003059,0,0.56901,0,0,0,45,0,0,0,0.98,0.42,0
0,0,0,0,0,0,0,0,0,0,0,0,0,0.56866,-1.0625e-17,0,0.56866,0,0,0,45,0,0,0,1,0.42,0
1,0,0,0,0,0,0,0,0,0,0,0,0,0.54488,-4.7922e-16,0,0.54488,0,0,0,45,0,0,0,0,0.44,0
0.9782,0,0,0,0,0,0,0,0,0,0,0,0,0.54496,-0.0011474,0,0.54496,0,0,0,45,0,0,0,0.02,0.44,0
0.9564,0,0,0,0,0,0,0,0,0,0,0,0,0.54518,-0.0023113,0,0.54519,0,0,0,45,0,0,0,0.04,0.44,0
0.93459,0,0,0,0,0,0,0,0,0,0,0,0,0.54556,-0.0035087,0,0.54557,0,0,0,45,0,0,0,0.06,0.44,0
0.91276,0,0,0,0,0,0,0,0,0,0,0,0,0.5461,-0.0047584,0,0.54612,0,0,0,45,0,0,0,0.08,0.44,0
0.8909,0,0,0,0,0,0,0,0,0,0,0,0,0.54682,-0.0060816,0,0.54686,0,0,0,45,0,0,0,0.1,0.44,0
0.86901,0,0,0,0,0,0,0,0,0,0,0,0,0.54773,-0.0075028,0,0.54778,0,0,0,45,0,0,0,0.12,0.44,0
0.84708,0,0,0,0,0,0,0,0,0,0,0,0,0.54885,-0.0090516,0,0.54892,0,0,0,45,0,0,0,0.14,0.44,0
0.8251,0,0,0,0,0,0,0,0,0,0,0,0,0.5502,-0.010764,0,0.55031,0,0,0,45,0,0,0,0.16,0.44,0
0.80307,0,0,0,0,0,0,0,0,0,0,0,0,0.55182,-0.012684,0,0.55197,0,0,0,45,0,0,0,0.18,0.44,0
0.78096,0,0,0,0,0,0,0,0,0,0,0,0,0.55374,-0.014868,0,0.55394,0,0,0,45,0,0,0,0.2,0.44,0
0.75877,0,0,0,0,0,0,0,0,0,0,0,0,0.55601,-0.017388,0,0.55628,0,0,0,45,0,0,0,0.22,0.44,0
0.73648,0,0,0,0,0,0,0,0,0,0,0,0,0.55869,-0.020334,0,0.55906,0,0,0,45,0,0,0,0.24,0.44,0
0.71407,0,0,0,0,0,0,0,0,0,0,0,0,0.56185,-0.023827,0,0.56236,0,0,0,45,0,0,0,0.26,0.44,0
0.69153,0,0,0,0,0,0,0,0,0,0,0,0,0.56559,-0.028024,0,0.56628,0,0,0,45,0,0,0,0.28,0.44,0
0.66883,0,0,0,0,0,0,0,0,0,0,0,0,0.57003,-0.033141,0,0.571,0,0,0,45,0,0,0,0.3,0.44,0
0.64593,0,0,0,0,0,0,0,0,0,0,0,0,0.5754,-0.03948,0,0.57675,0,0,0,45,0,0,0,0.32,0.44,0
0.62279,0,0,0,0,0,0,0,0,0,0,0,0,0.58203,-0.047496,0,0.58396,0,0,0,45,0,0,0,0.34,0.44,0
0.59937,0,0,0,0,0,0,0,0,0,0,0,0,0.59064,-0.05795,0,0.59347,0,0,0,45,0,0,0,0.36,0.44,0
0.57554,0,0,0,0,0,0,0,0,0,0,0,0,0.60257,-0.072365,0,0.60689,0,0,0,45,0,0,0,0.38,0.44,0
0.55116,0,0,0,0,0,0,0,0,0,0,0,0,0.62847,-0.094489,0,0.63536,0,0,0,45,0,0,0,0.4,0.44,0
0.52526,0,0,0,0,0,0,0,0,0,0,0,0,0.74836,-0.18462,0,0.76923,0,0,0,45,0,0,0,0.42,0.44,0
0.50701,0,0,0,0,0,0,0,0,0,0,0,0,0.60994,-0.042114,0,0.61038,0,0,0,45,0,0,0,0.44,0.44,0
0.49323,0,0,0,0,0,0,0,0,0,0,0,0,0.69959,0.0078386,0,0.69947,0,0,0,45,0,0,0,0.46,0.44,0
0.47902,0,0,0,0,0,0,0,0,0,0,0,0,0.70096,-0.0067276,0,0.70093,0,0,0,45,0,0,0,0.48,0.44,0
0.4652,0,0,0,0,0,0,0,0,0,0,0,0,0.69129,-0.0056477,0,0.69132,0,0,0,45,0,0,0,0.5,0.44,0
0.45137,0,0,0,0,0,0,0,0,0,0,0,0,0.69124,-0.0089404,0,0.6913,0,0,0,45,0,0,0,0.52,0.44,0
0.43755,0,0,0,0,0,0,0,0,0,0,0,0,0.69239,-0.009408,0,0.69246,0,0,0,45,0,0,0,0.54,0.44,0
0.42367,0,0,0,0,0,0,0,0,0,0,0,0,0.69456,-0.0081958,0,0.69461,0,0,0,45,0,0,0,0.56,0.44,0
0.40976,0,0,0,0,0,0,0,0,0,0,0,0,0.69601,-0.0054985,0,0.69603,0,0,0,45,0,0,0,0.58,0.44,0
0.39583,0,0,0,0,0,0,0,0,0,0,0,0,0.69619,-0.0023667,0,0.69619,0,0,0,45,0,0,0,0.6,0.44,0
0.38192,0,0,0,0,0,0,0,0,0,0,0,0,0.69507,0.00016778,0,0.69507,0,0,0,45,0,0,0,0.62,0.44,0
0.36803,0,0,0,0,0,0,0,0,0,0,0,0,0.69321,0.0010548,0,0.69322,0,0,0,45,0,0,0,0.64,0.44,0
0.35419,0,0,0,0,0,0,0,0,0,0,0,0,0.69226,9.7305e-05,0,0.69226,0,0,0,45,0,0,0,0.66,0.44,0
0.34034,0,0,0,0,0,0,0,0,0,0,0,0,0.69229,-0.0037994,0,0.69231,0,0,0,45,0,0,0,0.68,0.44,0
0.3265,0,0,0,0,0,0,0,0,0,0,0,0,0.7015,-0.0033937,0,0.70145,0,0,0,45,0,0,0,0.7,0.44,0
0.31228,0,0,0,0,0,0,0,0,0,0,0,0,0.69948,-0.017954,0,0.69952,0,0,0,45,0,0,0,0.72,0.44,0
0.29852,0,0,0,0,0,0,0,0,0,0,0,0,0.60847,0.034617,0,0.60844,0,0,0,45,0,0,0,0.74,0.44,0
0.28032,0,0,0,0,0,0,0,0,0,0,0,0,0.74532,0.1776,0,0.76454,0,0,0,45,0,0,0,0.76,0.44,0
0.25457,0,0,0,0,0,0,0,0,0,0,0,0,0.62592,0.090965,0,0.63233,0,0,0,45,0,0,0,0.78,0.44,0
0.23025,0,0,0,0,0,0,0,0,0,0,0,0,0.60198,0.069872,0,0.606,0,0,0,45,0,0,0,0.8,0.44,0
0.20641,0,0,0,0,0,0,0,0,0,0,0,0,0.59205,0.055433,0,0.59462,0,0,0,45,0,0,0,0.82,0.44,0
0.18288,0,0,0,0,0,0,0,0,0,0,0,0,0.58528,0.044192,0,0.58694,0,0,0,45,0,0,0,0.84,0.44,0
0.15959,0,0,0,0,0,0,0,0,0,0,0,0,0.58013,0.035065,0,0.58119,0,0,0,45,0,0,0,0.86,0.44,0
0.13647,0,0,0,0,0,0,0,0,0,0,0,0,0.57596,0.027613,0,0.57661,0,0,0,45,0,0,0,0.88,0.44,0
0.11351,0,0,0,0,0,0,0,0,0,0,0,0,0.57256,0.021429,0,0.57295,0,0,0,45,0,0,0,0.9,0.44,0
0.090668,0,0,0,0,0,0,0,0,0,0,0,0,0.56986,0.016182,0,0.57008,0,0,0,45,0,0,0,0.92,0.44,0
0.067921,0,0,0,0,0,0,0,0,0,0,0,0,0.56781,0.011609,0,0.56793,0,0,0,45,0,0,0,0.94,0.44,0
0.045243,0,0,0,0,0,0,0,0,0,0,0,0,0.56638,0.0074994,0,0.56643,0,0,0,45,0,0,0,0.96,0.44,0
0.02261,0,0,0,0,0,0,0,0,0,0,0,0,0.56554,0.0036798,0,0.56555,0,0,0,45,0,0,0,0.98,0.44,0
0,0,0,0,0,0,0,0,0,0,0,0,0,0.56526,3.6863e-18,0,0.56526,0,0,0,45,0,0,0,1,0.44,0
1,0,0,0,0,0,0,0,0,0,0,0,0,0.54366,1.9625e-15,0,0.54366,0,0,0,45,0,0,0,0,0.46,0
0.97825,0,0,0,0,0,0,0,0,0,0,0,0,0.54373,-0.0012863,0,0.54373,0,0,0,45,0,0,0,0.02,0.46,0
0.9565,0,0,0,0,0,0,0,0,0,0,0,0,0.54392,-0.0025917,0,0.54393,0,0,0,45,0,0,0,0.04,0.46,0
0.93474,0,0,0,0,0,0,0,0,0,0,0,0,0.54426,-0.0039362,0,0.54427,0,0,0,45,0,0,0,0.06,0.46,0
0.91296,0,0,0,0,0,0,0,0,0,0,0,0,0.54473,-0.0053414,0,0.54476,0,0,0,45,0,0,0,0.08,0.46,0
0.89116,0,0,0,0,0,0,0,0,0,0,0,0,0.54536,-0.0068315,0,0.5454,0,0,0,45,0,0,0,0.1,0.46,0
0.86933,0,0,0,0,0,0,0,0,0,0,0,0,0.54614,-0.0084346,0,0.54621,0,0,0,45,0,0,0,0.12,0.46,0
0.84747,0,0,0,0,0,0,0,0,0,0,0,0,0.5471,-0.010184,0,0.5472,0,0,0,45,0,0,0,0.14,0.46,0
0.82556,0,0,0,0,0,0,0,0,0,0,0,0,0.54825,-0.012119,0,0.54839,0,0,0,45,0,0,0,0.16,0.46,0
0.80361,0,0,0,0,0,0,0,0,0,0,0,0,0.54962,-0.01429,0,0.5498,0,0,0,45,0,0,0,0.18,0.46,0
0.7816,0,0,0,0,0,0,0,0,0,0,0,0,0.55122,-0.016758,0,0.55147,0,0,0,45,0,0,0,0.2,0.46,0
0.75951,0,0,0,0,0,0,0,0,0,0,0,0,0.55308,-0.019602,0,0.55342,0,0,0,45,0,0,0,0.22,0.46,0
0.73735,0,0,0,0,0,0,0,0,0,0,0,0,0.55523,-0.022919,0,0.55571,0,0,0,45,0,0,0,0.24,0.46,0
0.71509,0,0,0,0,0,0,0,0,0,0,0,0,0.55772,-0.026843,0,0.55837,0,0,0,45,0,0,0,0.26,0.46,0
0.69273,0,0,0,0,0,0,0,0,0,0,0,0,0.56058,-0.031546,0,0.56147,0,0,0,45,0,0,0,0.28,0.46,0
0.67025,0,0,0,0,0,0,0,0,0,0,0,0,0.56387,-0.037268,0,0.56509,0,0,0,45,0,0,0,0.3,0.46,0
0.64762,0,0,0,0,0,0,0,0,0,0,0,0,0.56763,-0.044357,0,0.56935,0,0,0,45,0,0,0,0.32,0.46,0
0.62484,0,0,0,0,0,0,0,0,0,0,0,0,0.57193,-0.053346,0,0.5744,0,0,0,45,0,0,0,0.34,0.46,0
0.60187,0,0,0,0,0,0,0,0,0,0,0,0,0.57669,-0.065147,0,0.58034,0,0,0,45,0,0,0,0.36,0.46,0
0.5787,0,0,0,0,0,0,0,0,0,0,0,0,0.58169,-0.081531,0,0.58732,0,0,0,45,0,0,0,0.38,0.46,0
0.55533,0,0,0,0,0,0,0,0,0,0,0,0,0.57512,-0.10672,0,0.58466,0,0,0,45,0,0,0,0.4,0.46,0
0.53269,0,0,0,0,0,0,0,0,0,0,0,0,0.57681,-0.15341,0,0.59671,0,0,0,45,0,0,0,0.42,0.46,0
0.50919,0,0,0,0,0,0,0,0,0,0,0,0,0.68198,-0.1233,0,0.69442,0,0,0,45,0,0,0,0.44,0.46,0
0.49252,0,0,0,0,0,0,0,0,0,0,0,0,0.56956,-0.024781,0,0.56955,0,0,0,45,0,0,0,0.46,0.46,0
0.47918,0,0,0,0,0,0,0,0,0,0,0,0,0.6815,0.014789,0,0.68141,0,0,0,45,0,0,0,0.48,0.46,0
0.46526,0,0,0,0,0,0,0,0,0,0,0,0,0.69029,-0.0077702,0,0.69027,0,0,0,45,0,0,0,0.5,0.46,0
0.45157,0,0,0,0,0,0,0,0,0,0,0,0,0.68754,-0.011083,0,0.68763,0,0,0,45,0,0,0,0.52,0.46,0
0.43776,0,0,0,0,0,0,0,0,0,0,0,0,0.69267,-0.013975,0,0.69282,0,0,0,45,0,0,0,0.54,0.46,0
0.42386,0,0,0,0,0,0,0,0,0,0,0,0,0.6969,-0.011523,0,0.697,0,0,0,45,0,0,0,0.56,0.46,0
0.40988,0,0,0,0,0,0,0,0,0,0,0,0,0.69969,-0.0067498,0,0.69972,0,0,0,45,0,0,0,0.58,0.46,0
0.39587,0,0,0,0,0,0,0,0,0,0,0,0,0.69979,-0.0013903,0,0.69979,0,0,0,45,0,0,0,0.6,0.46,0
0.38189,0,0,0,0,0,0,0,0,0,0,0,0,0.69719,0.0032302,0,0.6972,0,0,0,45,0,0,0,0.62,0.46,0
0.36799,0,0,0,0,0,0,0,0,0,0,0,0,0.69313,0.0053815,0,0.69315,0,0,0,45,0,0,0,0.64,0.46,0
0.35417,0,0,0,0,0,0,0,0,0,0,0,0,0.68812,0.0021077,0,0.68812,0,0,0,45,0,0,0,0.66,0.46,0
0.34046,0,0,0,0,0,0,0,0,0,0,0,0,0.69084,-0.0016592,0,0.69078,0,0,0,45,0,0,0,0.68,0.46,0
0.32653,0,0,0,0,0,0,0,0,0,0,0,0,0.68209,-0.024274,0,0.68228,0,0,0,45,0,0,0,0.7,0.46,0
0.31318,0,0,0,0,0,0,0,0,0,0,0,0,0.56924,0.017192,0,0.56896,0,0,0,45,0,0,0,0.72,0.46,0
0.29654,0,0,0,0,0,0,0,0,0,0,0,0,0.68032,0.115,0,0.69134,0,0,0,45,0,0,0,0.74,0.46,0
0.27314,0,0,0,0,0,0,0,0,0,0,0,0,0.57466,0.1474,0,0.59313,0,0,0,45,0,0,0,0.76,0.46,0
0.25057,0,0,0,0,0,0,0,0,0,0,0,0,0.57382,0.10183,0,0.58252,0,0,0,45,0,0,0,0.78,0.46,0
0.22723,0,0,0,0,0,0,0,0,0,0,0,0,0.58146,0.077191,0,0.5865,0,0,0,45,0,0,0,0.8,0.46,0
0.20405,0,0,0,0,0,0,0,0,0,0,0,0,0.57785,0.060817,0,0.58101,0,0,0,45,0,0,0,0.82,0.46,0
0.18101,0,0,0,0,0,0,0,0,0,0,0,0,0.57446,0.048539,0,0.57649,0,0,0,45,0,0,0,0.84,0.46,0
0.15809,0,0,0,0,0,0,0,0,0,0,0,0,0.57141,0.038759,0,0.57272,0,0,0,45,0,0,0,0.86,0.46,0
0.13529,0,0,0,0,0,0,0,0,0,0,0,0,0.56876,0.030722,0,0.56958,0,0,0,45,0,0,0,0.88,0.46,0
0.11259,0,0,0,0,0,0,0,0,0,0,0,0,0.56649,0.023977,0,0.56699,0,0,0,45,0,0,0,0.9,0.46,0
0.089974,0,0,0,0,0,0,0,0,0,0,0,0,0.56462,0.018187,0,0.56491,0,0,0,45,0,0,0,0.92,0.46,0
0.067422,0,0,0,0,0,0,0,0,0,0,0,0,0.56317,0.01309,0,0.56332,0,0,0,45,0,0,0,0.94,0.46,0
0.044921,0,0,0,0,0,0,0,0,0,0,0,0,0.56213,0.0084756,0,0.56219,0,0,0,45,0,0,0,0.96,0.46,0
0.022452,0,0,0,0,0,0,0,0,0,0,0,0,0.56151,0.0041644,0,0.56152,0,0,0,45,0,0,0,0.98,0.46,0
0,0,0,0,0,0,0,0,0,0,0,0,0,0.5613,-9.1073e-18,0,0.5613,0,0,0,45,0,0,0,1,0.46,0
1,0,0,0,0,0,0,0,0,0,0,0,0,0.54231,2.6141e-15,0,0.54231,0,0,0,45,0,0,0,0,0.48,0
0.97831,0,0,0,0,0,0,0,0,0,0,0,0,0.54237,-0.0014063,0,0.54237,0,0,0,45,0,0,0,0.02,0.48,0
0.95661,0,0,0,0,0,0,0,0,0,0,0,0,0.54253,-0.0028337,0,0.54254,0,0,0,45,0,0,0,0.04,0.48,0
0.9349,0,0,0,0,0,0,0,0,0,0,0,0,0.54281,-0.0043039,0,0.54283,0,0,0,45,0,0,0,0.06,0.48,0
0.91319,0,0,0,0,0,0,0,0,0,0,0,0,0.54321,-0.0058407,0,0.54324,0,0,0,45,0,0,0,0.08,0.48,0
0.89145,0,0,0,0,0,0,0,0,0,0,0,0,0.54373,-0.0074702,0,0.54378,0,0,0,45,0,0,0,0.1,0.48,0
0.86969,0,0,0,0,0,0,0,0,0,0,0,0,0.54438,-0.0092225,0,0.54446,0,0,0,45,0,0,0,0.12,0.48,0
0.8479,0,0,0,0,0,0,0,0,0,0,0,0,0.54516,-0.011133,0,0.54528,0,0,0,45,0,0,0,0.14,0.48,0
0.82607,0,0,0,0,0,0,0,0,0,0,0,0,0.54609,-0.013243,0,0.54625,0,0,0,45,0,0,0,0.16,0.48,0
0.80421,0,0,0,0,0,0,0,0,0,0,0,0,0.54718,-0.015605,0,0.5474,0,0,0,45,0,0,0,0.18,0.48,0
0.7823,0,0,0,0,0,0,0,0,0,0,0,0,0.54843,-0.018281,0,0.54873,0,0,0,45,0,0,0,0.2,0.48,0
0.76034,0,0,0,0,0,0,0,0,0,0,0,0,0.54985,-0.02135,0,0.55026,0,0,0,45,0,0,0,0.22,0.48,0
0.73831,0,0,0,0,0,0,0,0,0,0,0,0,0.55145,-0.024913,0,0.55201,0,0,0,45,0,0,0,0.24,0.48,0
0.71622,0,0,0,0,0,0,0,0,0,0,0,0,0.55322,-0.0291,0,0.55399,0,0,0,45,0,0,0,0.26,0.48,0
0.69405,0,0,0,0,0,0,0,0,0,0,0,0,0.55516,-0.03408,0,0.5562,0,0,0,45,0,0,0,0.28,0.48,0
0.67181,0,0,0,0,0,0,0,0,0,0,0,0,0.55722,-0.040084,0,0.55866,0,0,0,45,0,0,0,0.3,0.48,0
0.64948,0,0,0,0,0,0,0,0,0,0,0,0,0.55932,-0.047436,0,0.56132,0,0,0,45,0,0,0,0.32,0.48,0
0.62706,0,0,0,0,0,0,0,0,0,0,0,0,0.56124,-0.056605,0,0.56407,0,0,0,45,0,0,0,0.34,0.48,0
0.60458,0,0,0,0,0,0,0,0,0,0,0,0,0.56245,-0.068301,0,0.56656,0,0,0,45,0,0,0,0.36,0.48,0
0.58207,0,0,0,0,0,0,0,0,0,0,0,0,0.561,-0.083584,0,0.56715,0,0,0,45,0,0,0,0.38,0.48,0
0.5597,0,0,0,0,0,0,0,0,0,0,0,0,0.55659,-0.1037,0,0.56614,0,0,0,45,0,0,0,0.4,0.48,0
0.53754,0,0,0,0,0,0,0,0,0,0,0,0,0.5419,-0.11924,0,0.55473,0,0,0,45,0,0,0,0.42,0.48,0
0.51635,0,0,0,0,0,0,0,0,0,0,0,0,0.54072,-0.15006,0,0.56093,0,0,0,45,0,0,0,0.44,0.48,0
0.49428,0,0,0,0,0,0,0,0,0,0,0,0,0.64618,-0.10833,0,0.65723,0,0,0,45,0,0,0,0.46,0.48,0
0.47843,0,0,0,0,0,0,0,0,0,0,0,0,0.54562,-0.023754,0,0.54596,0,0,0,45,0,0,0,0.48,0.48,0
0.46551,0,0,0,0,0,0,0,0,0,0,0,0,0.66542,0.0029628,0,0.66508,0,0,0,45,0,0,0,0.5,0.48,0
0.45181,0,0,0,0,0,0,0,0,0,0,0,0,0.68503,-0.022765,0,0.68541,0,0,0,45,0,0,0,0.52,0.48,0
0.43811,0,0,0,0,0,0,0,0,0,0,0,0,0.69195,-0.02312,0,0.69236,0,0,0,45,0,0,0,0.54,0.48,0
0.42413,0,0,0,0,0,0,0,0,0,0,0,0,0.70178,-0.016761,0,0.70198,0,0,0,45,0,0,0,0.56,0.48,0
0.41003,0,0,0,0,0,0,0,0,0,0,0,0,0.70615,-0.0084722,0,0.70619,0,0,0,45,0,0,0,0.58,0.48,0
0.39589,0,0,0,0,0,0,0,0,0,0,0,0,0.70617,0.00020887,0,0.70616,0,0,0,45,0,0,0,0.6,0.48,0
0.38179,0,0,0,0,0,0,0,0,0,0,0,0,0.70185,0.0083579,0,0.7019,0,0,0,45,0,0,0,0.62,0.48,0
0.36782,0,0,0,0,0,0,0,0,0,0,0,0,0.69209,0.014428,0,0.69226,0,0,0,45,0,0,0,0.64,0.48,0
0.3541,0,0,0,0,0,0,0,0,0,0,0,0,0.68522,0.013608,0,0.68535,0,0,0,45,0,0,0,0.66,0.48,0
0.34041,0,0,0,0,0,0,0,0,0,0,0,0,0.66591,-0.01225,0,0.66569,0,0,0,45,0,0,0,0.68,0.48,0
0.32747,0,0,0,0,0,0,0,0,0,0,0,0,0.5455,0.01608,0,0.54555,0,0,0,45,0,0,0,0.7,0.48,0
0.31163,0,0,0,0,0,0,0,0,0,0,0,0,0.64488,0.099588,0,0.65453,0,0,0,45,0,0,0,0.72,0.48,0
0.28966,0,0,0,0,0,0,0,0,0,0,0,0,0.53882,0.14326,0,0.55734,0,0,0,45,0,0,0,0.74,0.48,0
0.26853,0,0,0,0,0,0,0,0,0,0,0,0,0.5405,0.11306,0,0.55207,0,0,0,45,0,0,0,0.76,0.48,0
0.24642,0,0,0,0,0,0,0,0,0,0,0,0,0.55572,0.097893,0,0.56425,0,0,0,45,0,0,0,0.78,0.48,0
0.22407,0,0,0,0,0,0,0,0,0,0,0,0,0.56096,0.078037,0,0.56632,0,0,0,45,0,0,0,0.8,0.48,0
0.20154,0,0,0,0,0,0,0,0,0,0,0,0,0.56339,0.062682,0,0.56684,0,0,0,45,0,0,0,0.82,0.48,0
0.179,0,0,0,0,0,0,0,0,0,0,0,0,0.56322,0.050592,0,0.56547,0,0,0,45,0,0,0,0.84,0.48,0
0.15649,0,0,0,0,0,0,0,0,0,0,0,0,0.56232,0.040769,0,0.56378,0,0,0,45,0,0,0,0.86,0.48,0
0.13401,0,0,0,0,0,0,0,0,0,0,0,0,0.56117,0.032575,0,0.56211,0,0,0,45,0,0,0,0.88,0.48,0
0.11159,0,0,0,0,0,0,0,0,0,0,0,0,0.56002,0.025592,0,0.5606,0,0,0,45,0,0,0,0.9,0.48,0
0.089213,0,0,0,0,0,0,0,0,0,0,0,0,0.55897,0.019514,0,0.55931,0,0,0,45,0,0,0,0.92,0.48,0
0.066874,0,0,0,0,0,0,0,0,0,0,0,0,0.5581,0.014101,0,0.55828,0,0,0,45,0,0,0,0.94,0.48,0
0.044565,0,0,0,0,0,0,0,0,0,0,0,0,0.55746,0.0091551,0,0.55753,0,0,0,45,0,0,0,0.96,0.48,0
0.022277,0,0,0,0,0,0,0,0,0,0,0,0,0.55706,0.0045055,0,0.55708,0,0,0,45,0,0,0,0.98,0.48,0
0,0,0,0,0,0,0,0,0,0,0,0,0,0.55693,4.3368e-19,0,0.55693,0,0,0,45,0,0,0,1,0.48,0
1,0,0,0,0,0,0,0,0,0,0,0,0,0.54085,3.4803e-17,0,0.54085,0,0,0,45,0,0,0,0,0.5,0
0.97837,0,0,0,0,0,0,0,0,0,0,0,0,0.54089,-0.0015055,0,0.5409,0,0,0,45,0,0,0,0.02,0.5,0
0.95673,0,0,0,0,0,0,0,0,0,0,0,0,0.54103,-0.0030332,0,0.54104,0,0,0,45,0,0,0,0.04,0.5,0
0.93508,0,0,0,0,0,0,0,0,0,0,0,0,0.54125,-0.004606,0,0.54127,0,0,0,45,0,0,0,0.06,0.5,0
0.91343,0,0,0,0,0,0,0,0,0,0,0,0,0.54156,-0.0062485,0,0.5416,0,0,0,45,0,0,0,0.08,0.5,0
0.89176,0,0,0,0,0,0,0,0,0,0,0,0,0.54197,-0.0079878,0,0.54203,0,0,0,45,0,0,0,0.1,0.5,0
0.87007,0,0,0,0,0,0,0,0,0,0,0,0,0.54248,-0.0098547,0,0.54257,0,0,0,45,0,0,0,0.12,0.5,0
0.84836,0,0,0,0,0,0,0,0,0,0,0,0,0.54308,-0.011885,0,0.54321,0,0,0,45,0,0,0,0.14,0.5,0
0.82662,0,0,0,0,0,0,0,0,0,0,0,0,0.54378,-0.01412,0,0.54396,0,0,0,45,0,0,0,0.16,0.5,0
0.80486,0,0,0,0,0,0,0,0,0,0,0,0,0.54458,-0.01661,0,0.54483,0,0,0,45,0,0,0,0.18,0.5,0
0.78306,0,0,0,0,0,0,0,0,0,0,0,0,0.54547,-0.019417,0,0.54582,0,0,0,45,0,0,0,0.2,0.5,0
0.76122,0,0,0,0,0,0,0,0,0,0,0,0,0.54644,-0.022615,0,0.54691,0,0,0,45,0,0,0,0.22,0.5,0
0.73934,0,0,0,0,0,0,0,0,0,0,0,0,0.54748,-0.026297,0,0.54811,0,0,0,45,0,0,0,0.24,0.5,0
0.71742,0,0,0,0,0,0,0,0,0,0,0,0,0.54856,-0.030582,0,0.5494,0,0,0,45,0,0,0,0.26,0.5,0
0.69546,0,0,0,0,0,0,0,0,0,0,0,0,0.5496,-0.035618,0,0.55075,0,0,0,45,0,0,0,0.28,0.5,0
0.67345,0,0,0,0,0,0,0,0,0,0,0,0,0.55051,-0.041598,0,0.55207,0,0,0,45,0,0,0,0.3,0.5,0
0.65142,0,0,0,0,0,0,0,0,0,0,0,0,0.55111,-0.048771,0,0.55325,0,0,0,45,0,0,0,0.32,0.5,0
0.62936,0,0,0,0,0,0,0,0,0,0,0,0,0.55106,-0.057457,0,0.55403,0,0,0,45,0,0,0,0.34,0.5,0
0.60733,0,0,0,0,0,0,0,0,0,0,0,0,0.54971,-0.068022,0,0.55389,0,0,0,45,0,0,0,0.36,0.5,0
0.58539,0,0,0,0,0,0,0,0,0,0,0,0,0.5463,-0.080718,0,0.55221,0,0,0,45,0,0,0,0.38,0.5,0
0.56363,0,0,0,0,0,0,0,0,0,0,0,0,0.53946,-0.094539,0,0.54766,0,0,0,45,0,0,0,0.4,0.5,0
0.54223,0,0,0,0,0,0,0,0,0,0,0,0,0.53045,-0.10983,0,0.54172,0,0,0,45,0,0,0,0.42,0.5,0
0.52119,0,0,0,0,0,0,0,0,0,0,0,0,0.51387,-0.11894,0,0.52736,0,0,0,45,0,0,0,0.44,0.5,0
0.50112,0,0,0,0,0,0,0,0,0,0,0,0,0.51276,-0.14446,0,0.53249,0,0,0,45,0,0,0,0.46,0.5,0
0.48017,0,0,0,0,0,0,0,0,0,0,0,0,0.61292,-0.10645,0,0.62442,0,0,0,45,0,0,0,0.48,0.5,0
0.46514,0,0,0,0,0,0,0,0,0,0,0,0,0.52414,-0.037841,0,0.52587,0,0,0,45,0,0,0,0.5,0.5,0
0.45248,0,0,0,0,0,0,0,0,0,0,0,0,0.66145,-0.049057,0,0.66331,0,0,0,45,0,0,0,0.52,0.5,0
0.43868,0,0,0,0,0,0,0,0,0,0,0,0,0.69868,-0.036486,0,0.69964,0,0,0,45,0,0,0,0.54,0.5,0
0.42453,0,0,0,0,0,0,0,0,0,0,0,0,0.71155,-0.023313,0,0.71192,0,0,0,45,0,0,0,0.56,0.5,0
0.41022,0,0,0,0,0,0,0,0,0,0,0,0,0.71666,-0.010453,0,0.71672,0,0,0,45,0,0,0,0.58,0.5,0
0.39587,0,0,0,0,0,0,0,0,0,0,0,0,0.71662,0.0022035,0,0.71661,0,0,0,45,0,0,0,0.6,0.5,0
0.38156,0,0,0,0,0,0,0,0,0,0,0,0,0.71141,0.014945,0,0.71155,0,0,0,45,0,0,0,0.62,0.5,0
0.36741,0,0,0,0,0,0,0,0,0,0,0,0,0.69838,0.027857,0,0.69895,0,0,0,45,0,0,0,0.64,0.5,0
0.35362,0,0,0,0,0,0,0,0,0,0,0,0,0.66144,0.039936,0,0.66269,0,0,0,45,0,0,0,0.66,0.5,0
0.34095,0,0,0,0,0,0,0,0,0,0,0,0,0.52376,0.029829,0,0.52493,0,0,0,45,0,0,0,0.68,0.5,0
0.32595,0,0,0,0,0,0,0,0,0,0,0,0,0.61146,0.097378,0,0.62146,0,0,0,45,0,0,0,0.7,0.5,0
0.30509,0,0,0,0,0,0,0,0,0,0,0,0,0.51087,0.13727,0,0.52878,0,0,0,45,0,0,0,0.72,0.5,0
0.28508,0,0,0,0,0,0,0,0,0,0,0,0,0.51242,0.11213,0,0.52446,0,0,0,45,0,0,0,0.74,0.5,0
0.2641,0,0,0,0,0,0,0,0,0,0,0,0,0.52929,0.1032,0,0.53928,0,0,0,45,0,0,0,0.76,0.5,0
0.24274,0,0,0,0,0,0,0,0,0,0,0,0,0.53879,0.088103,0,0.54593,0,0,0,45,0,0,0,0.78,0.5,0
0.22099,0,0,0,0,0,0,0,0,0,0,0,0,0.54625,0.074319,0,0.55126,0,0,0,45,0,0,0,0.8,0.5,0
0.19903,0,0,0,0,0,0,0,0,0,0,0,0,0.55041,0.06146,0,0.55381,0,0,0,45,0,0,0,0.82,0.5,0
0.17696,0,0,0,0,0,0,0,0,0,0,0,0,0.55254,0.050503,0,0.55483,0,0,0,45,0,0,0,0.84,0.5,0
0.15483,0,0,0,0,0,0,0,0,0,0,0,0,0.5534,0.041211,0,0.55492,0,0,0,45,0,0,0,0.86,0.5,0
0.13269,0,0,0,0,0,0,0,0,0,0,0,0,0.55358,0.033249,0,0.55457,0,0,0,45,0,0,0,0.88,0.5,0
0.11055,0,0,0,0,0,0,0,0,0,0,0,0,0.55343,0.026321,0,0.55405,0,0,0,45,0,0,0,0.9,0.5,0
0.088413,0,0,0,0,0,0,0,0,0,0,0,0,0.55313,0.02019,0,0.55349,0,0,0,45,0,0,0,0.92,0.5,0
0.066294,0,0,0,0,0,0,0,0,0,0,0,0,0.55281,0.014655,0,0.553,0,0,0,45,0,0,0,0.94,0.5,0
0.044188,0,0,0,0,0,0,0,0,0,0,0,0,0.55253,0.0095436,0,0.55261,0,0,0,45,0,0,0,0.96,0.5,0
0.022092,0,0,0,0,0,0,0,0,0,0,0,0,0.55235,0.0047052,0,0.55237,0,0,0,45,0,0,0,0.98,0.5,0
0,0,0,0,0,0,0,0,0,0,0,0,0,0.55229,7.8063e-18,0,0.55229,0,0,0,45,0,0,0,1,0.5,0
1,0,0,0,0,0,0,0,0,0,0,0,0,0.5393,-6.9692e-16,0,0.5393,0,0,0,45,0,0,0,0,0.52,0
0.97843,0,0,0,0,0,0,0,0,0,0,0,0,0.53933,-0.0015828,0,0.53934,0,0,0,45,0,0,0,0.02,0.52,0
0.95685,0,0,0,0,0,0,0,0,0,0,0,0,0.53943,-0.0031881,0,0.53944,0,0,0,45,0,0,0,0.04,0.52,0
0.93527,0,0,0,0,0,0,0,0,0,0,0,0,0.5396,-0.0048392,0,0.53962,0,0,0,45,0,0,0,0.06,0.52,0
0.91369,0,0,0,0,0,0,0,0,0,0,0,0,0.53983,-0.0065606,0,0.53987,0,0,0,45,0,0,0,0.08,0.52,0
0.89209,0,0,0,0,0,0,0,0,0,0,0,0,0.54012,-0.0083795,0,0.54019,0,0,0,45,0,0,0,0.1,0.52,0
0.87048,0,0,0,0,0,0,0,0,0,0,0,0,0.54048,-0.010326,0,0.54058,0,0,0,45,0,0,0,0.12,0.52,0
0.84885,0,0,0,0,0,0,0,0,0,0,0,0,0.5409,-0.012434,0,0.54104,0,0,0,45,0,0,0,0.14,0.52,0
0.8272,0,0,0,0,0,0,0,0,0,0,0,0,0.54137,-0.014744,0,0.54157,0,0,0,45,0,0,0,0.16,0.52,0
0.80554,0,0,0,0,0,0,0,0,0,0,0,0,0.54188,-0.017303,0,0.54216,0,0,0,45,0,0,0,0.18,0.52,0
0.78385,0,0,0,0,0,0,0,0,0,0,0,0,0.54243,-0.020167,0,0.5428,0,0,0,45,0,0,0,0.2,0.52,0
0.76214,0,0,0,0,0,0,0,0,0,0,0,0,0.54297,-0.023402,0,0.54347,0,0,0,45,0,0,0,0.22,0.52,0
0.74042,0,0,0,0,0,0,0,0,0,0,0,0,0.54348,-0.027089,0,0.54416,0,0,0,45,0,0,0,0.24,0.52,0
0.71867,0,0,0,0,0,0,0,0,0,0,0,0,0.5439,-0.031326,0,0.5448,0,0,0,45,0,0,0,0.26,0.52,0
0.6969,0,0,0,0,0,0,0,0,0,0,0,0,0.54414,-0.03623,0,0.54534,0,0,0,45,0,0,0,0.28,0.52,0
0.67514,0,0,0,0,0,0,0,0,0,0,0,0,0.54407,-0.041941,0,0.54568,0,0,0,45,0,0,0,0.3,0.52,0
0.65338,0,0,0,0,0,0,0,0,0,0,0,0,0.54346,-0.04862,0,0.54562,0,0,0,45,0,0,0,0.32,0.52,0
0.63166,0,0,0,0,0,0,0,0,0,0,0,0,0.54199,-0.05643,0,0.54491,0,0,0,45,0,0,0,0.34,0.52,0
0.61002,0,0,0,0,0,0,0,0,0,0,0,0,0.53919,-0.065472,0,0.54314,0,0,0,45,0,0,0,0.36,0.52,0
0.58852,0,0,0,0,0,0,0,0,0,0,0,0,0.53449,-0.075606,0,0.5398,0,0,0,45,0,0,0,0.38,0.52,0
0.56726,0,0,0,0,0,0,0,0,0,0,0,0,0.52749,-0.086526,0,0.53453,0,0,0,45,0,0,0,0.4,0.52,0
0.54632,0,0,0,0,0,0,0,0,0,0,0,0,0.5175,-0.097117,0,0.52654,0,0,0,45,0,0,0,0.42,0.52,0
0.52586,0,0,0,0,0,0,0,0,0,0,0,0,0.50608,-0.10848,0,0.51763,0,0,0,45,0,0,0,0.44,0.52,0
0.50584,0,0,0,0,0,0,0,0,0,0,0,0,0.48761,-0.11482,0,0.50086,0,0,0,45,0,0,0,0.46,0.52,0
0.48685,0,0,0,0,0,0,0,0,0,0,0,0,0.48235,-0.13943,0,0.50203,0,0,0,45,0,0,0,0.48,0.52,0
0.46725,0,0,0,0,0,0,0,0,0,0,0,0,0.55634,-0.11488,0,0.57045,0,0,0,45,0,0,0,0.5,0.52,0
0.45378,0,0,0,0,0,0,0,0,0,0,0,0,0.51911,-0.074599,0,0.52525,0,0,0,45,0,0,0,0.52,0.52,0
0.43956,0,0,0,0,0,0,0,0,0,0,0,0,0.53827,-0.048223,0,0.54075,0,0,0,45,0,0,0,0.54,0.52,0
0.42507,0,0,0,0,0,0,0,0,0,0,0,0,0.54586,-0.028713,0,0.54669,0,0,0,45,0,0,0,0.56,0.52,0
0.41045,0,0,0,0,0,0,0,0,0,0,0,0,0.54875,-0.012022,0,0.54885,0,0,0,45,0,0,0,0.58,0.52,0
0.3958,0,0,0,0,0,0,0,0,0,0,0,0,0.54868,0.0038771,0,0.54865,0,0,0,45,0,0,0,0.6,0.52,0
0.38119,0,0,0,0,0,0,0,0,0,0,0,0,0.54562,0.020482,0,0.54603,0,0,0,45,0,0,0,0.62,0.52,0
0.3667,0,0,0,0,0,0,0,0,0,0,0,0,0.53781,0.039798,0,0.5395,0,0,0,45,0,0,0,0.64,0.52,0
0.35251,0,0,0,0,0,0,0,0,0,0,0,0,0.51782,0.065832,0,0.52263,0,0,0,45,0,0,0,0.66,0.52,0
0.33908,0,0,0,0,0,0,0,0,0,0,0,0,0.55402,0.1051,0,0.56621,0,0,0,45,0,0,0,0.68,0.52,0
0.31958,0,0,0,0,0,0,0,0,0,0,0,0,0.48038,0.13184,0,0.49811,0,0,0,45,0,0,0,0.7,0.52,0
0.30065,0,0,0,0,0,0,0,0,0,0,0,0,0.48609,0.10762,0,0.49778,0,0,0,45,0,0,0,0.72,0.52,0
0.28069,0,0,0,0,0,0,0,0,0,0,0,0,0.50475,0.10139,0,0.51488,0,0,0,45,0,0,0,0.74,0.52,0
0.26027,0,0,0,0,0,0,0,0,0,0,0,0,0.51647,0.090145,0,0.52429,0,0,0,45,0,0,0,0.76,0.52,0
0.23937,0,0,0,0,0,0,0,0,0,0,0,0,0.52684,0.079585,0,0.53282,0,0,0,45,0,0,0,0.78,0.52,0
0.21813,0,0,0,0,0,0,0,0,0,0,0,0,0.53432,0.068584,0,0.53869,0,0,0,45,0,0,0,0.8,0.52,0
0.19663,0,0,0,0,0,0,0,0,0,0,0,0,0.53958,0.05821,0,0.5427,0,0,0,45,0,0,0,0.82,0.52,0
0.17496,0,0,0,0,0,0,0,0,0,0,0,0,0.54297,0.048752,0,0.54515,0,0,0,45,0,0,0,0.84,0.52,0
0.15319,0,0,0,0,0,0,0,0,0,0,0,0,0.54506,0.040348,0,0.54655,0,0,0,45,0,0,0,0.86,0.52,0
0.13135,0,0,0,0,0,0,0,0,0,0,0,0,0.54629,0.032904,0,0.54727,0,0,0,45,0,0,0,0.88,0.52,0
0.10949,0,0,0,0,0,0,0,0,0,0,0,0,0.54696,0.026267,0,0.54758,0,0,0,45,0,0,0,0.9,0.52,0
0.087598,0,0,0,0,0,0,0,0,0,0,0,0,0.5473,0.020279,0,0.54768,0,0,0,45,0,0,0,0.92,0.52,0
0.065701,0,0,0,0,0,0,0,0,0,0,0,0,0.54746,0.01479,0,0.54765,0,0,0,45,0,0,0,0.94,0.52,0
0.043802,0,0,0,0,0,0,0,0,0,0,0,0,0.54751,0.0096637,0,0.54759,0,0,0,45,0,0,0,0.96,0.52,0
0.021901,0,0,0,0,0,0,0,0,0,0,0,0,0.54752,0.0047737,0,0.54754,0,0,0,45,0,0,0,0.98,0.52,0
0,0,0,0,0,0,0,0,0,0,0,0,0,0.54752,-9.9747e-18,0,0.54751,0,0,0,45,0,0,0,1,0.52,0
1,0,0,0,0,0,0,0,0,0,0,0,0,0.53768,-1.8085e-16,0,0.53768,0,0,0,45,0,0,0,0,0.54,0
0.97849,0,0,0,0,0,0,0,0,0,0,0,0,0.53771,-0.0016378,0,0.53771,0,0,0,45,0,0,0,0.02,0.54,0
0.95698,0,0,0,0,0,0,0,0,0,0,0,0,0.53777,-0.0032978,0,0.53778,0,0,0,45,0,0,0,0.04,0.54,0
0.93547,0,0,0,0,0,0,0,0,0,0,0,0,0.53788,-0.0050027,0,0.5379,0,0,0,45,0,0,0,0.06,0.54,0
0.91395,0,0,0,0,0,0,0,0,0,0,0,0,0.53802,-0.0067764,0,0.53807,0,0,0,45,0,0,0,0.08,0.54,0
0.89243,0,0,0,0,0,0,0,0,0,0,0,0,0.53821,-0.0086449,0,0.53828,0,0,0,45,0,0,0,0.1,0.54,0
0.8709,0,0,0,0,0,0,0,0,0,0,0,0,0.53842,-0.010637,0,0.53853,0,0,0,45,0,0,0,0.12,0.54,0
0.84935,0,0,0,0,0,0,0,0,0,0,0,0,0.53866,-0.012784,0,0.53881,0,0,0,45,0,0,0,0.14,0.54,0
0.8278,0,0,0,0,0,0,0,0,0,0,0,0,0.53891,-0.015123,0,0.53912,0,0,0,45,0,0,0,0.16,0.54,0
0.80624,0,0,0,0,0,0,0,0,0,0,0,0,0.53916,-0.017696,0,0.53944,0,0,0,45,0,0,0,0.18,0.54,0
0.78467,0,0,0,0,0,0,0,0,0,0,0,0,0.53937,-0.020551,0,0.53976,0,0,0,45,0,0,0,0.2,0.54,0
0.76309,0,0,0,0,0,0,0,0,0,0,0,0,0.53952,-0.023744,0,0.54004,0,0,0,45,0,0,0,0.22,0.54,0
0.74151,0,0,0,0,0,0,0,0,0,0,0,0,0.53956,-0.027339,0,0.54025,0,0,0,45,0,0,0,0.24,0.54,0
0.71993,0,0,0,0,0,0,0,0,0,0,0,0,0.53941,-0.031411,0,0.54033,0,0,0,45,0,0,0,0.26,0.54,0
0.69836,0,0,0,0,0,0,0,0,0,0,0,0,0.53898,-0.036043,0,0.54018,0,0,0,45,0,0,0,0.28,0.54,0
0.67681,0,0,0,0,0,0,0,0,0,0,0,0,0.53812,-0.041322,0,0.5397,0,0,0,45,0,0,0,0.3,0.54,0
0.65531,0,0,0,0,0,0,0,0,0,0,0,0,0.53662,-0.047329,0,0.5387,0,0,0,45,0,0,0,0.32,0.54,0
0.63388,0,0,0,0,0,0,0,0,0,0,0,0,0.53421,-0.054116,0,0.53694,0,0,0,45,0,0,0,0.34,0.54,0
0.61257,0,0,0,0,0,0,0,0,0,0,0,0,0.53054,-0.06165,0,0.5341,0,0,0,45,0,0,0,0.36,0.54,0
0.59144,0,0,0,0,0,0,0,0,0,0,0,0,0.52524,-0.069776,0,0.52986,0,0,0,45,0,0,0,0.38,0.54,0
0.57055,0,0,0,0,0,0,0,0,0,0,0,0,0.51795,-0.078147,0,0.52382,0,0,0,45,0,0,0,0.4,0.54,0
0.55,0,0,0,0,0,0,0,0,0,0,0,0,0.50849,-0.086475,0,0.51581,0,0,0,45,0,0,0,0.42,0.54,0
0.52987,0,0,0,0,0,0,0,0,0,0,0,0,0.49617,-0.094004,0,0.50502,0,0,0,45,0,0,0,0.44,0.54,0
0.51031,0,0,0,0,0,0,0,0,0,0,0,0,0.48182,-0.10223,0,0.49263,0,0,0,45,0,0,0,0.46,0.54,0
0.49133,0,0,0,0,0,0,0,0,0,0,0,0,0.45809,-0.10573,0,0.47008,0,0,0,45,0,0,0,0.48,0.54,0
0.47366,0,0,0,0,0,0,0,0,0,0,0,0,0.42716,-0.12654,0,0.44629,0,0,0,45,0,0,0,0.5,0.54,0
0.45715,0,0,0,0,0,0,0,0,0,0,0,0,0.39996,-0.080775,0,0.40768,0,0,0,45,0,0,0,0.52,0.54,0
0.44166,0,0,0,0,0,0,0,0,0,0,0,0,0.38572,-0.051661,0,0.38902,0,0,0,45,0,0,0,0.54,0.54,0
0.42629,0,0,0,0,0,0,0,0,0,0,0,0,0.38384,-0.030508,0,0.38497,0,0,0,45,0,0,0,0.56,0.54,0
0.41096,0,0,0,0,0,0,0,0,0,0,0,0,0.38342,-0.012532,0,0.38356,0,0,0,45,0,0,0,0.58,0.54,0
0.39562,0,0,0,0,0,0,0,0,0,0,0,0,0.38334,0.0045319,0,0.3833,0,0,0,45,0,0,0,0.6,0.54,0
0.38029,0,0,0,0,0,0,0,0,0,0,0,0,0.38358,0.022452,0,0.38415,0,0,0,45,0,0,0,0.62,0.54,0
0.36494,0,0,0,0,0,0,0,0,0,0,0,0,0.38519,0.043497,0,0.3875,0,0,0,45,0,0,0,0.64,0.54,0
0.34947,0,0,0,0,0,0,0,0,0,0,0,0,0.39905,0.072453,0,0.40521,0,0,0,45,0,0,0,0.66,0.54,0
0.33301,0,0,0,0,0,0,0,0,0,0,0,0,0.42589,0.11839,0,0.44282,0,0,0,45,0,0,0,0.68,0.54,0
0.3154,0,0,0,0,0,0,0,0,0,0,0,0,0.45665,0.098173,0,0.46703,0,0,0,45,0,0,0,0.7,0.54,0
0.29648,0,0,0,0,0,0,0,0,0,0,0,0,0.48043,0.094825,0,0.48978,0,0,0,45,0,0,0,0.72,0.54,0
0.27697,0,0,0,0,0,0,0,0,0,0,0,0,0.49495,0.086713,0,0.50252,0,0,0,45,0,0,0,0.74,0.54,0
0.25688,0,0,0,0,0,0,0,0,0,0,0,0,0.50749,0.079211,0,0.51365,0,0,0,45,0,0,0,0.76,0.54,0
0.23637,0,0,0,0,0,0,0,0,0,0,0,0,0.51723,0.070828,0,0.52207,0,0,0,45,0,0,0,0.78,0.54,0
0.21551,0,0,0,0,0,0,0,0,0,0,0,0,0.52488,0.062293,0,0.52856,0,0,0,45,0,0,0,0.8,0.54,0
0.19438,0,0,0,0,0,0,0,0,0,0,0,0,0.53057,0.053872,0,0.5333,0,0,0,45,0,0,0,0.82,0.54,0
0.17306,0,0,0,0,0,0,0,0,0,0,0,0,0.53468,0.045896,0,0.53664,0,0,0,45,0,0,0,0.84,0.54,0
0.1516,0,0,0,0,0,0,0,0,0,0,0,0,0.53755,0.038514,0,0.53892,0,0,0,45,0,0,0,0.86,0.54,0
0.13006,0,0,0,0,0,0,0,0,0,0,0,0,0.5395,0.031755,0,0.54043,0,0,0,45,0,0,0,0.88,0.54,0
0.10844,0,0,0,0,0,0,0,0,0,0,0,0,0.5408,0.025569,0,0.5414,0,0,0,45,0,0,0,0.9,0.54,0
0.086791,0,0,0,0,0,0,0,0,0,0,0,0,0.54165,0.019872,0,0.54201,0,0,0,45,0,0,0,0.92,0.54,0
0.065111,0,0,0,0,0,0,0,0,0,0,0,0,0.54219,0.014565,0,0.54239,0,0,0,45,0,0,0,0.94,0.54,0
0.043415,0,0,0,0,0,0,0,0,0,0,0,0,0.54252,0.00955,0,0.5426,0,0,0,45,0,0,0,0.96,0.54,0
0.02171,0,0,0,0,0,0,0,0,0,0,0,0,0.54269,0.0047271,0,0.54271,0,0,0,45,0,0,0,0.98,0.54,0
0,0,0,0,0,0,0,0,0,0,0,0,0,0.54274,3.9031e-18,0,0.54274,0,0,0,45,0,0,0,1,0.54,0
1,0,0,0,0,0,0,0,0,0,0,0,0,0.53602,-3.0314e-16,0,0.53602,0,0,0,45,0,0,0,0,0.56,0
0.97856,0,0,0,0,0,0,0,0,0,0,0,0,0.53604,-0.001671,0,0.53604,0,0,0,45,0,0,0,0.02,0.56,0
0.95712,0,0,0,0,0,0,0,0,0,0,0,0,0.53607,-0.0033631,0,0.53608,0,0,0,45,0,0,0,0.04,0.56,0
0.93567,0,0,0,0,0,0,0,0,0,0,0,0,0.53612,-0.005098,0,0.53614,0,0,0,45,0,0,0,0.06,0.56,0
0.91423,0,0,0,0,0,0,0,0,0,0,0,0,0.53619,-0.0068983,0,0.53623,0,0,0,45,0,0,0,0.08,0.56,0
0.89278,0,0,0,0,0,0,0,0,0,0,0,0,0.53626,-0.0087882,0,0.53633,0,0,0,45,0,0,0,0.1,0.56,0
0.87133,0,0,0,0,0,0,0,0,0,0,0,0,0.53634,-0.010794,0,0.53645,0,0,0,45,0,0,0,0.12,0.56,0
0.84987,0,0,0,0,0,0,0,0,0,0,0,0,0.53641,-0.012944,0,0.53657,0,0,0,45,0,0,0,0.14,0.56,0
0.82841,0,0,0,0,0,0,0,0,0,0,0,0,0.53646,-0.01527,0,0.53667,0,0,0,45,0,0,0,0.16,0.56,0
0.80695,0,0,0,0,0,0,0,0,0,0,0,0,0.53646,-0.017809,0,0.53675,0,0,0,45,0,0,0,0.18,0.56,0
0.7855,0,0,0,0,0,0,0,0,0,0,0,0,0.53638,-0.020599,0,0.53677,0,0,0,45,0,0,0,0.2,0.56,0
0.76404,0,0,0,0,0,0,0,0,0,0,0,0,0.53618,-0.023685,0,0.5367,0,0,0,45,0,0,0,0.22,0.56,0
0.7426,0,0,0,0,0,0,0,0,0,0,0,0,0.53582,-0.027115,0,0.5365,0,0,0,45,0,0,0,0.24,0.56,0
0.72118,0,0,0,0,0,0,0,0,0,0,0,0,0.5352,-0.030939,0,0.53609,0,0,0,45,0,0,0,0.26,0.56,0
0.69979,0,0,0,0,0,0,0,0,0,0,0,0,0.53423,-0.035208,0,0.53539,0,0,0,45,0,0,0,0.28,0.56,0
0.67844,0,0,0,0,0,0,0,0,0,0,0,0,0.53278,-0.039966,0,0.53428,0,0,0,45,0,0,0,0.3,0.56,0
0.65716,0,0,0,0,0,0,0,0,0,0,0,0,0.53067,-0.045236,0,0.53259,0,0,0,45,0,0,0,0.32,0.56,0
0.63599,0,0,0,0,0,0,0,0,0,0,0,0,0.52767,-0.051003,0,0.53012,0,0,0,45,0,0,0,0.34,0.56,0
0.61495,0,0,0,0,0,0,0,0,0,0,0,0,0.52353,-0.057185,0,0.52664,0,0,0,45,0,0,0,0.36,0.56,0
0.5941,0,0,0,0,0,0,0,0,0,0,0,0,0.51799,-0.063609,0,0.52188,0,0,0,45,0,0,0,0.38,0.56,0
0.57351,0,0,0,0,0,0,0,0,0,0,0,0,0.51079,-0.070017,0,0.51557,0,0,0,45,0,0,0,0.4,0.56,0
0.55324,0,0,0,0,0,0,0,0,0,0,0,0,0.50164,-0.07605,0,0.50739,0,0,0,45,0,0,0,0.42,0.56,0
0.53338,0,0,0,0,0,0,0,0,0,0,0,0,0.49033,-0.081457,0,0.49708,0,0,0,45,0,0,0,0.44,0.56,0
0.51402,0,0,0,0,0,0,0,0,0,0,0,0,0.47589,-0.085398,0,0.48354,0,0,0,45,0,0,0,0.46,0.56,0
0.49531,0,0,0,0,0,0,0,0,0,0,0,0,0.45804,-0.088556,0,0.46665,0,0,0,45,0,0,0,0.48,0.56,0
0.47737,0,0,0,0,0,0,0,0,0,0,0,0,0.4384,-0.082386,0,0.44618,0,0,0,45,0,0,0,0.5,0.56,0
0.46024,0,0,0,0,0,0,0,0,0,0,0,0,0.42095,-0.068546,0,0.42651,0,0,0,45,0,0,0,0.52,0.56,0
0.4437,0,0,0,0,0,0,0,0,0,0,0,0,0.40912,-0.047618,0,0.41181,0,0,0,45,0,0,0,0.54,0.56,0
0.42751,0,0,0,0,0,0,0,0,0,0,0,0,0.40304,-0.028969,0,0.40401,0,0,0,45,0,0,0,0.56,0.56,0
0.41145,0,0,0,0,0,0,0,0,0,0,0,0,0.40087,-0.012071,0,0.40099,0,0,0,45,0,0,0,0.58,0.56,0
0.39544,0,0,0,0,0,0,0,0,0,0,0,0,0.40077,0.0042475,0,0.40073,0,0,0,45,0,0,0,0.6,0.56,0
0.37939,0,0,0,0,0,0,0,0,0,0,0,0,0.40271,0.021117,0,0.4032,0,0,0,45,0,0,0,0.62,0.56,0
0.36322,0,0,0,0,0,0,0,0,0,0,0,0,0.40854,0.039721,0,0.4104,0,0,0,45,0,0,0,0.64,0.56,0
0.34671,0,0,0,0,0,0,0,0,0,0,0,0,0.4201,0.06065,0,0.42448,0,0,0,45,0,0,0,0.66,0.56,0
0.32961,0,0,0,0,0,0,0,0,0,0,0,0,0.43732,0.0746,0,0.44374,0,0,0,45,0,0,0,0.68,0.56,0
0.31172,0,0,0,0,0,0,0,0,0,0,0,0,0.45682,0.080934,0,0.46406,0,0,0,45,0,0,0,0.7,0.56,0
0.29307,0,0,0,0,0,0,0,0,0,0,0,0,0.47463,0.077918,0,0.48104,0,0,0,45,0,0,0,0.72,0.56,0
0.27375,0,0,0,0,0,0,0,0,0,0,0,0,0.48914,0.074019,0,0.49474,0,0,0,45,0,0,0,0.74,0.56,0
0.25394,0,0,0,0,0,0,0,0,0,0,0,0,0.50058,0.068579,0,0.50528,0,0,0,45,0,0,0,0.76,0.56,0
0.23371,0,0,0,0,0,0,0,0,0,0,0,0,0.50992,0.062427,0,0.51374,0,0,0,45,0,0,0,0.78,0.56,0
0.21314,0,0,0,0,0,0,0,0,0,0,0,0,0.51736,0.055799,0,0.52037,0,0,0,45,0,0,0,0.8,0.56,0
0.19232,0,0,0,0,0,0,0,0,0,0,0,0,0.52318,0.049042,0,0.52547,0,0,0,45,0,0,0,0.82,0.56,0
0.17129,0,0,0,0,0,0,0,0,0,0,0,0,0.52762,0.042398,0,0.52931,0,0,0,45,0,0,0,0.84,0.56,0
0.15011,0,0,0,0,0,0,0,0,0,0,0,0,0.53092,0.036033,0,0.53214,0,0,0,45,0,0,0,0.86,0.56,0
0.12881,0,0,0,0,0,0,0,0,0,0,0,0,0.53334,0.030024,0,0.53418,0,0,0,45,0,0,0,0.88,0.56,0
0.10744,0,0,0,0,0,0,0,0,0,0,0,0,0.53508,0.024381,0,0.53563,0,0,0,45,0,0,0,0.9,0.56,0
0.086008,0,0,0,0,0,0,0,0,0,0,0,0,0.5363,0.019074,0,0.53664,0,0,0,45,0,0,0,0.92,0.56,0
0.064536,0,0,0,0,0,0,0,0,0,0,0,0,0.53713,0.014051,0,0.53731,0,0,0,45,0,0,0,0.94,0.56,0
0.043037,0,0,0,0,0,0,0,0,0,0,0,0,0.53767,0.0092444,0,0.53775,0,0,0,45,0,0,0,0.96,0.56,0
0.021523,0,0,0,0,0,0,0,0,0,0,0,0,0.53797,0.0045853,0,0.53799,0,0,0,45,0,0,0,0.98,0.56,0
0,0,0,0,0,0,0,0,0,0,0,0,0,0.53807,8.4568e-18,0,0.53806,0,0,0,45,0,0,0,1,0.56,0
1,0,0,0,0,0,0,0,0,0,0,0,0,0.53434,6.8489e-16,0,0.53434,0,0,0,45,0,0,0,0,0.58,0
0.97863,0,0,0,0,0,0,0,0,0,0,0,0,0.53434,-0.0016831,0,0.53434,0,0,0,45,0,0,0,0.02,0.58,0
0.95725,0,0,0,0,0,0,0,0,0,0,0,0,0.53434,-0.0033859,0,0.53435,0,0,0,45,0,0,0,0.04,0.58,0
0.93588,0,0,0,0,0,0,0,0,0,0,0,0,0.53434,-0.0051284,0,0.53437,0,0,0,45,0,0,0,0.06,0.58,0
0.91451,0,0,0,0,0,0,0,0,0,0,0,0,0.53434,-0.0069313,0,0.53438,0,0,0,45,0,0,0,0.08,0.58,0
0.89313,0,0,0,0,0,0,0,0,0,0,0,0,0.53431,-0.0088166,0,0.53439,0,0,0,45,0,0,0,0.1,0.58,0
0.87176,0,0,0,0,0,0,0,0,0,0,0,0,0.53427,-0.010807,0,0.53438,0,0,0,45,0,0,0,0.12,0.58,0
0.85039,0,0,0,0,0,0,0,0,0,0,0,0,0.53419,-0.012929,0,0.53434,0,0,0,45,0,0,0,0.14,0.58,0
0.82903,0,0,0,0,0,0,0,0,0,0,0,0,0.53405,-0.015207,0,0.53426,0,0,0,45,0,0,0,0.16,0.58,0
0.80767,0,0,0,0,0,0,0,0,0,0,0,0,0.53383,-0.017672,0,0.53412,0,0,0,45,0,0,0,0.18,0.58,0
0.78632,0,0,0,0,0,0,0,0,0,0,0,0,0.5335,-0.020354,0,0.53388,0,0,0,45,0,0,0,0.2,0.58,0
0.76499,0,0,0,0,0,0,0,0,0,0,0,0,0.53301,-0.023284,0,0.53351,0,0,0,45,0,0,0,0.22,0.58,0
0.74368,0,0,0,0,0,0,0,0,0,0,0,0,0.53231,-0.026496,0,0.53297,0,0,0,45,0,0,0,0.24,0.58,0
0.7224,0,0,0,0,0,0,0,0,0,0,0,0,0.53132,-0.03002,0,0.53217,0,0,0,45,0,0,0,0.26,0.58,0
0.70117,0,0,0,0,0,0,0,0,0,0,0,0,0.52996,-0.03388,0,0.53104,0,0,0,45,0,0,0,0.28,0.58,0
0.68001,0,0,0,0,0,0,0,0,0,0,0,0,0.52809,-0.038085,0,0.52946,0,0,0,45,0,0,0,0.3,0.58,0
0.65892,0,0,0,0,0,0,0,0,0,0,0,0,0.52558,-0.042624,0,0.52731,0,0,0,45,0,0,0,0.32,0.58,0
0.63796,0,0,0,0,0,0,0,0,0,0,0,0,0.52226,-0.047444,0,0.52441,0,0,0,45,0,0,0,0.34,0.58,0
0.61715,0,0,0,0,0,0,0,0,0,0,0,0,0.51793,-0.052441,0,0.52058,0,0,0,45,0,0,0,0.36,0.58,0
0.59652,0,0,0,0,0,0,0,0,0,0,0,0,0.51241,-0.057444,0,0.51563,0,0,0,45,0,0,0,0.38,0.58,0
0.57615,0,0,0,0,0,0,0,0,0,0,0,0,0.50551,-0.062209,0,0.50934,0,0,0,45,0,0,0,0.4,0.58,0
0.55608,0,0,0,0,0,0,0,0,0,0,0,0,0.49705,-0.066428,0,0.50149,0,0,0,45,0,0,0,0.42,0.58,0
0.53639,0,0,0,0,0,0,0,0,0,0,0,0,0.48682,-0.069661,0,0.49181,0,0,0,45,0,0,0,0.44,0.58,0
0.51714,0,0,0,0,0,0,0,0,0,0,0,0,0.47472,-0.071407,0,0.48011,0,0,0,45,0,0,0,0.46,0.58,0
0.49841,0,0,0,0,0,0,0,0,0,0,0,0,0.4611,-0.070134,0,0.46646,0,0,0,45,0,0,0,0.48,0.58,0
0.48025,0,0,0,0,0,0,0,0,0,0,0,0,0.44717,-0.064629,0,0.45187,0,0,0,45,0,0,0,0.5,0.58,0
0.46264,0,0,0,0,0,0,0,0,0,0,0,0,0.43473,-0.05418,0,0.4381,0,0,0,45,0,0,0,0.52,0.58,0
0.44547,0,0,0,0,0,0,0,0,0,0,0,0,0.42529,-0.040584,0,0.4272,0,0,0,45,0,0,0,0.54,0.58,0
0.42861,0,0,0,0,0,0,0,0,0,0,0,0,0.41939,-0.025722,0,0.42014,0,0,0,45,0,0,0,0.56,0.58,0
0.41192,0,0,0,0,0,0,0,0,0,0,0,0,0.41664,-0.011058,0,0.41674,0,0,0,45,0,0,0,0.58,0.58,0
0.39528,0,0,0,0,0,0,0,0,0,0,0,0,0.41653,0.0034439,0,0.4165,0,0,0,45,0,0,0,0.6,0.58,0
0.3786,0,0,0,0,0,0,0,0,0,0,0,0,0.41905,0.018096,0,0.4194,0,0,0,45,0,0,0,0.62,0.58,0
0.36176,0,0,0,0,0,0,0,0,0,0,0,0,0.42472,0.032947,0,0.42597,0,0,0,45,0,0,0,0.64,0.58,0
0.34462,0,0,0,0,0,0,0,0,0,0,0,0,0.43393,0.046554,0,0.43643,0,0,0,45,0,0,0,0.66,0.58,0
0.32704,0,0,0,0,0,0,0,0,0,0,0,0,0.44618,0.057045,0,0.44985,0,0,0,45,0,0,0,0.68,0.58,0
0.30893,0,0,0,0,0,0,0,0,0,0,0,0,0.45997,0.062608,0,0.46426,0,0,0,45,0,0,0,0.7,0.58,0
0.29025,0,0,0,0,0,0,0,0,0,0,0,0,0.47351,0.063917,0,0.47785,0,0,0,45,0,0,0,0.72,0.58,0
0.27104,0,0,0,0,0,0,0,0,0,0,0,0,0.48561,0.062155,0,0.4896,0,0,0,45,0,0,0,0.74,0.58,0
0.2514,0,0,0,0,0,0,0,0,0,0,0,0,0.49589,0.058834,0,0.49939,0,0,0,45,0,0,0,0.76,0.58,0
0.23137,0,0,0,0,0,0,0,0,0,0,0,0,0.50445,0.054448,0,0.50739,0,0,0,45,0,0,0,0.78,0.58,0
0.21104,0,0,0,0,0,0,0,0,0,0,0,0,0.51149,0.049425,0,0.51388,0,0,0,45,0,0,0,0.8,0.58,0
0.19046,0,0,0,0,0,0,0,0,0,0,0,0,0.51717,0.044061,0,0.51905,0,0,0,45,0,0,0,0.82,0.58,0
0.16967,0,0,0,0,0,0,0,0,0,0,0,0,0.52167,0.03859,0,0.5231,0,0,0,45,0,0,0,0.84,0.58,0
0.14872,0,0,0,0,0,0,0,0,0,0,0,0,0.52517,0.033174,0,0.52622,0,0,0,45,0,0,0,0.86,0.58,0
0.12765,0,0,0,0,0,0,0,0,0,0,0,0,0.52785,0.027912,0,0.52858,0,0,0,45,0,0,0,0.88,0.58,0
0.10649,0,0,0,0,0,0,0,0,0,0,0,0,0.52985,0.022849,0,0.53034,0,0,0,45,0,0,0,0.9,0.58,0
0.085265,0,0,0,0,0,0,0,0,0,0,0,0,0.53132,0.017991,0,0.53163,0,0,0,45,0,0,0,0.92,0.58,0
0.063987,0,0,0,0,0,0,0,0,0,0,0,0,0.53236,0.013317,0,0.53253,0,0,0,45,0,0,0,0.94,0.58,0
0.042675,0,0,0,0,0,0,0,0,0,0,0,0,0.53305,0.0087913,0,0.53312,0,0,0,45,0,0,0,0.96,0.58,0
0.021343,0,0,0,0,0,0,0,0,0,0,0,0,0.53344,0.0043692,0,0.53346,0,0,0,45,0,0,0,0.98,0.58,0
0,0,0,0,0,0,0,0,0,0,0,0,0,0.53357,-1.1926e-17,0,0.53357,0,0,0,45,0,0,0,1,0.58,0
1,0,0,0,0,0,0,0,0,0,0,0,0,0.53266,1.1728e-15,0,0.53266,0,0,0,45,0,0,0,0,0.6,0
0.97869,0,0,0,0,0,0,0,0,0,0,0,0,0.53265,-0.0016757,0,0.53265,0,0,0,45,0,0,0,0.02,0.6,0
0.95739,0,0,0,0,0,0,0,0,0,0,0,0,0.53262,-0.0033692,0,0.53263,0,0,0,45,0,0,0,0.04,0.6,0
0.93608,0,0,0,0,0,0,0,0,0,0,0,0,0.53257,-0.0050986,0,0.5326,0,0,0,45,0,0,0,0.06,0.6,0
0.91478,0,0,0,0,0,0,0,0,0,0,0,0,0.5325,-0.0068825,0,0.53254,0,0,0,45,0,0,0,0.08,0.6,0
0.89348,0,0,0,0,0,0,0,0,0,0,0,0,0.53239,-0.00874,0,0.53246,0,0,0,45,0,0,0,0.1,0.6,0
0.87219,0,0,0,0,0,0,0,0,0,0,0,0,0.53223,-0.010691,0,0.53234,0,0,0,45,0,0,0,0.12,0.6,0
0.85091,0,0,0,0,0,0,0,0,0,0,0,0,0.53201,-0.012757,0,0.53216,0,0,0,45,0,0,0,0.14,0.6,0
0.82963,0,0,0,0,0,0,0,0,0,0,0,0,0.53171,-0.014958,0,0.53192,0,0,0,45,0,0,0,0.16,0.6,0
0.80837,0,0,0,0,0,0,0,0,0,0,0,0,0.53131,-0.017318,0,0.53159,0,0,0,45,0,0,0,0.18,0.6,0
0.78713,0,0,0,0,0,0,0,0,0,0,0,0,0.53077,-0.019859,0,0.53114,0,0,0,45,0,0,0,0.2,0.6,0
0.76591,0,0,0,0,0,0,0,0,0,0,0,0,0.53004,-0.022601,0,0.53052,0,0,0,45,0,0,0,0.22,0.6,0
0.74472,0,0,0,0,0,0,0,0,0,0,0,0,0.52908,-0.025565,0,0.5297,0,0,0,45,0,0,0,0.24,0.6,0
0.72358,0,0,0,0,0,0,0,0,0,0,0,0,0.52782,-0.028762,0,0.5286,0,0,0,45,0,0,0,0.26,0.6,0
0.7025,0,0,0,0,0,0,0,0,0,0,0,0,0.52617,-0.032198,0,0.52715,0,0,0,45,0,0,0,0.28,0.6,0
0.68149,0,0,0,0,0,0,0,0,0,0,0,0,0.52404,-0.035859,0,0.52526,0,0,0,45,0,0,0,0.3,0.6,0
0.66057,0,0,0,0,0,0,0,0,0,0,0,0,0.52131,-0.039711,0,0.52282,0,0,0,45,0,0,0,0.32,0.6,0
0.63978,0,0,0,0,0,0,0,0,0,0,0,0,0.51785,-0.043685,0,0.51969,0,0,0,45,0,0,0,0.34,0.6,0
0.61915,0,0,0,0,0,0,0,0,0,0,0,0,0.51353,-0.047667,0,0.51574,0,0,0,45,0,0,0,0.36,0.6,0
0.5987,0,0,0,0,0,0,0,0,0,0,0,0,0.50822,-0.051491,0,0.51083,0,0,0,45,0,0,0,0.38,0.6,0
0.57849,0,0,0,0,0,0,0,0,0,0,0,0,0.5018,-0.054934,0,0.50481,0,0,0,45,0,0,0,0.4,0.6,0
0.55856,0,0,0,0,0,0,0,0,0,0,0,0,0.49419,-0.057697,0,0.49756,0,0,0,45,0,0,0,0.42,0.6,0
0.53895,0,0,0,0,0,0,0,0,0,0,0,0,0.48535,-0.059396,0,0.48899,0,0,0,45,0,0,0,0.44,0.6,0
0.51973,0,0,0,0,0,0,0,0,0,0,0,0,0.47541,-0.059455,0,0.47914,0,0,0,45,0,0,0,0.46,0.6,0
0.50092,0,0,0,0,0,0,0,0,0,0,0,0,0.46482,-0.0572,0,0.46836,0,0,0,45,0,0,0,0.48,0.6,0
0.48254,0,0,0,0,0,0,0,0,0,0,0,0,0.45436,-0.052043,0,0.45735,0,0,0,45,0,0,0,0.5,0.6,0
0.46457,0,0,0,0,0,0,0,0,0,0,0,0,0.44499,-0.043989,0,0.44716,0,0,0,45,0,0,0,0.52,0.6,0
0.44694,0,0,0,0,0,0,0,0,0,0,0,0,0.43757,-0.033646,0,0.43885,0,0,0,45,0,0,0,0.54,0.6,0
0.42957,0,0,0,0,0,0,0,0,0,0,0,0,0.43256,-0.022002,0,0.4331,0,0,0,45,0,0,0,0.56,0.6,0
0.41234,0,0,0,0,0,0,0,0,0,0,0,0,0.43004,-0.0098305,0,0.43012,0,0,0,45,0,0,0,0.58,0.6,0
0.39516,0,0,0,0,0,0,0,0,0,0,0,0,0.42992,0.0024423,0,0.4299,0,0,0,45,0,0,0,0.6,0.6,0
0.37794,0,0,0,0,0,0,0,0,0,0,0,0,0.43222,0.014608,0,0.43244,0,0,0,45,0,0,0,0.62,0.6,0
0.36059,0,0,0,0,0,0,0,0,0,0,0,0,0.437,0.026244,0,0.43777,0,0,0,45,0,0,0,0.64,0.6,0
0.34298,0,0,0,0,0,0,0,0,0,0,0,0,0.4442,0.036584,0,0.44571,0,0,0,45,0,0,0,0.66,0.6,0
0.32505,0,0,0,0,0,0,0,0,0,0,0,0,0.45338,0.044639,0,0.45559,0,0,0,45,0,0,0,0.68,0.6,0
0.30672,0,0,0,0,0,0,0,0,0,0,0,0,0.4637,0.049793,0,0.46639,0,0,0,45,0,0,0,0.7,0.6,0
0.28795,0,0,0,0,0,0,0,0,0,0,0,0,0.47418,0.05202,0,0.47705,0,0,0,45,0,0,0,0.72,0.6,0
0.26878,0,0,0,0,0,0,0,0,0,0,0,0,0.48405,0.05189,0,0.48685,0,0,0,45,0,0,0,0.74,0.6,0
0.24923,0,0,0,0,0,0,0,0,0,0,0,0,0.49288,0.050059,0,0.49543,0,0,0,45,0,0,0,0.76,0.6,0
0.22935,0,0,0,0,0,0,0,0,0,0,0,0,0.50051,0.047093,0,0.50274,0,0,0,45,0,0,0,0.78,0.6,0
0.20919,0,0,0,0,0,0,0,0,0,0,0,0,0.50698,0.043366,0,0.50883,0,0,0,45,0,0,0,0.8,0.6,0
0.18879,0,0,0,0,0,0,0,0,0,0,0,0,0.51235,0.039164,0,0.51384,0,0,0,45,0,0,0,0.82,0.6,0
0.1682,0,0,0,0,0,0,0,0,0,0,0,0,0.51673,0.034704,0,0.51789,0,0,0,45,0,0,0,0.84,0.6,0
0.14745,0,0,0,0,0,0,0,0,0,0,0,0,0.52024,0.030144,0,0.52112,0,0,0,45,0,0,0,0.86,0.6,0
0.12658,0,0,0,0,0,0,0,0,0,0,0,0,0.52302,0.02559,0,0.52364,0,0,0,45,0,0,0,0.88,0.6,0
0.10561,0,0,0,0,0,0,0,0,0,0,0,0,0.52516,0.021105,0,0.52558,0,0,0,45,0,0,0,0.9,0.6,0
0.084569,0,0,0,0,0,0,0,0,0,0,0,0,0.52677,0.016717,0,0.52703,0,0,0,45,0,0,0,0.92,0.6,0
0.063471,0,0,0,0,0,0,0,0,0,0,0,0,0.52794,0.012431,0,0.52808,0,0,0,45,0,0,0,0.94,0.6,0
0.042334,0,0,0,0,0,0,0,0,0,0,0,0,0.52872,0.0082332,0,0.52878,0,0,0,45,0,0,0,0.96,0.6,0
0.021173,0,0,0,0,0,0,0,0,0,0,0,0,0.52918,0.0040998,0,0.52919,0,0,0,45,0,0,0,0.98,0.6,0
0,0,0,0,0,0,0,0,0,0,0,0,0,0.52933,-4.3368e-18,0,0.52932,0,0,0,45,0,0,0,1,0.6,0
1,0,0,0,0,0,0,0,0,0,0,0,0,0.53099,-1.0855e-15,0,0.53099,0,0,0,45,0,0,0,0,0.62,0
0.97876,0,0,0,0,0,0,0,0,0,0,0,0,0.53097,-0.0016504,0,0.53097,0,0,0,45,0,0,0,0.02,0.62,0
0.95752,0,0,0,0,0,0,0,0,0,0,0,0,0.53092,-0.0033167,0,0.53093,0,0,0,45,0,0,0,0.04,0.62,0
0.93629,0,0,0,0,0,0,0,0,0,0,0,0,0.53083,-0.0050146,0,0.53085,0,0,0,45,0,0,0,0.06,0.62,0
0.91506,0,0,0,0,0,0,0,0,0,0,0,0,0.53069,-0.0067603,0,0.53074,0,0,0,45,0,0,0,0.08,0.62,0
0.89383,0,0,0,0,0,0,0,0,0,0,0,0,0.53051,-0.0085702,0,0.53057,0,0,0,45,0,0,0,0.1,0.62,0
0.87262,0,0,0,0,0,0,0,0,0,0,0,0,0.53025,-0.010461,0,0.53035,0,0,0,45,0,0,0,0.12,0.62,0
0.85141,0,0,0,0,0,0,0,0,0,0,0,0,0.52992,-0.012449,0,0.53006,0,0,0,45,0,0,0,0.14,0.62,0
0.83022,0,0,0,0,0,0,0,0,0,0,0,0,0.52948,-0.014551,0,0.52968,0,0,0,45,0,0,0,0.16,0.62,0
0.80905,0,0,0,0,0,0,0,0,0,0,0,0,0.52893,-0.016784,0,0.52919,0,0,0,45,0,0,0,0.18,0.62,0
0.78791,0,0,0,0,0,0,0,0,0,0,0,0,0.52821,-0.019161,0,0.52856,0,0,0,45,0,0,0,0.2,0.62,0
0.7668,0,0,0,0,0,0,0,0,0,0,0,0,0.5273,-0.021696,0,0.52775,0,0,0,45,0,0,0,0.22,0.62,0
0.74572,0,0,0,0,0,0,0,0,0,0,0,0,0.52615,-0.024396,0,0.52671,0,0,0,45,0,0,0,0.24,0.62,0
0.7247,0,0,0,0,0,0,0,0,0,0,0,0,0.52469,-0.027261,0,0.5254,0,0,0,45,0,0,0,0.26,0.62,0
0.70375,0,0,0,0,0,0,0,0,0,0,0,0,0.52286,-0.030281,0,0.52373,0,0,0,45,0,0,0,0.28,0.62,0
0.68288,0,0,0,0,0,0,0,0,0,0,0,0,0.52058,-0.033432,0,0.52165,0,0,0,45,0,0,0,0.3,0.62,0
0.6621,0,0,0,0,0,0,0,0,0,0,0,0,0.51776,-0.036663,0,0.51905,0,0,0,45,0,0,0,0.32,0.62,0
0.64145,0,0,0,0,0,0,0,0,0,0,0,0,0.5143,-0.0399,0,0.51585,0,0,0,45,0,0,0,0.34,0.62,0
0.62096,0,0,0,0,0,0,0,0,0,0,0,0,0.51013,-0.04303,0,0.51194,0,0,0,45,0,0,0,0.36,0.62,0
0.60064,0,0,0,0,0,0,0,0,0,0,0,0,0.50515,-0.045899,0,0.50723,0,0,0,45,0,0,0,0.38,0.62,0
0.58055,0,0,0,0,0,0,0,0,0,0,0,0,0.49931,-0.048306,0,0.50165,0,0,0,45,0,0,0,0.4,0.62,0
0.5607,0,0,0,0,0,0,0,0,0,0,0,0,0.49259,-0.049996,0,0.49513,0,0,0,45,0,0,0,0.42,0.62,0
0.54114,0,0,0,0,0,0,0,0,0,0,0,0,0.48506,-0.050646,0,0.48772,0,0,0,45,0,0,0,0.44,0.62,0
0.52189,0,0,0,0,0,0,0,0,0,0,0,0,0.47692,-0.049879,0,0.47954,0,0,0,45,0,0,0,0.46,0.62,0
0.50299,0,0,0,0,0,0,0,0,0,0,0,0,0.46852,-0.047318,0,0.47092,0,0,0,45,0,0,0,0.48,0.62,0
0.48441,0,0,0,0,0,0,0,0,0,0,0,0,0.46038,-0.042732,0,0.46237,0,0,0,45,0,0,0,0.5,0.62,0
0.46615,0,0,0,0,0,0,0,0,0,0,0,0,0.45313,-0.036158,0,0.45457,0,0,0,45,0,0,0,0.52,0.62,0
0.44816,0,0,0,0,0,0,0,0,0,0,0,0,0.44728,-0.02794,0,0.44814,0,0,0,45,0,0,0,0.54,0.62,0
0.43037,0,0,0,0,0,0,0,0,0,0,0,0,0.44321,-0.018594,0,0.44358,0,0,0,45,0,0,0,0.56,0.62,0
0.41271,0,0,0,0,0,0,0,0,0,0,0,0,0.44108,-0.0086432,0,0.44115,0,0,0,45,0,0,0,0.58,0.62,0
0.39509,0,0,0,0,0,0,0,0,0,0,0,0,0.44096,0.0014894,0,0.44095,0,0,0,45,0,0,0,0.6,0.62,0
0.37743,0,0,0,0,0,0,0,0,0,0,0,0,0.44285,0.011432,0,0.44299,0,0,0,45,0,0,0,0.62,0.62,0
0.35966,0,0,0,0,0,0,0,0,0,0,0,0,0.4467,0.020765,0,0.44717,0,0,0,45,0,0,0,0.64,0.62,0
0.34169,0,0,0,0,0,0,0,0,0,0,0,0,0.45233,0.028965,0,0.45326,0,0,0,45,0,0,0,0.66,0.62,0
0.32347,0,0,0,0,0,0,0,0,0,0,0,0,0.45939,0.035512,0,0.46077,0,0,0,45,0,0,0,0.68,0.62,0
0.30494,0,0,0,0,0,0,0,0,0,0,0,0,0.46735,0.040054,0,0.46908,0,0,0,45,0,0,0,0.7,0.62,0
0.28608,0,0,0,0,0,0,0,0,0,0,0,0,0.47561,0.042545,0,0.47753,0,0,0,45,0,0,0,0.72,0.62,0
0.26689,0,0,0,0,0,0,0,0,0,0,0,0,0.48365,0.043201,0,0.48559,0,0,0,45,0,0,0,0.74,0.62,0
0.24739,0,0,0,0,0,0,0,0,0,0,0,0,0.4911,0.042387,0,0.49294,0,0,0,45,0,0,0,0.76,0.62,0
0.22761,0,0,0,0,0,0,0,0,0,0,0,0,0.49776,0.040468,0,0.49941,0,0,0,45,0,0,0,0.78,0.62,0
0.20757,0,0,0,0,0,0,0,0,0,0,0,0,0.50356,0.037759,0,0.50498,0,0,0,45,0,0,0,0.8,0.62,0
0.18732,0,0,0,0,0,0,0,0,0,0,0,0,0.50851,0.034506,0,0.50968,0,0,0,45,0,0,0,0.82,0.62,0
0.16689,0,0,0,0,0,0,0,0,0,0,0,0,0.51265,0.030901,0,0.51358,0,0,0,45,0,0,0,0.84,0.62,0
0.14631,0,0,0,0,0,0,0,0,0,0,0,0,0.51606,0.027094,0,0.51677,0,0,0,45,0,0,0,0.86,0.62,0
0.12561,0,0,0,0,0,0,0,0,0,0,0,0,0.51881,0.023188,0,0.51933,0,0,0,45,0,0,0,0.88,0.62,0
0.1048,0,0,0,0,0,0,0,0,0,0,0,0,0.52098,0.019255,0,0.52133,0,0,0,45,0,0,0,0.9,0.62,0
0.083927,0,0,0,0,0,0,0,0,0,0,0,0,0.52265,0.015337,0,0.52287,0,0,0,45,0,0,0,0.92,0.62,0
0.062993,0,0,0,0,0,0,0,0,0,0,0,0,0.52388,0.011453,0,0.524,0,0,0,45,0,0,0,0.94,0.62,0
0.042017,0,0,0,0,0,0,0,0,0,0,0,0,0.52472,0.0076089,0,0.52477,0,0,0,45,0,0,0,0.96,0.62,0
0.021015,0,0,0,0,0,0,0,0,0,0,0,0,0.52521,0.0037958,0,0.52522,0,0,0,45,0,0,0,0.98,0.62,0
0,0,0,0,0,0,0,0,0,0,0,0,0,0.52537,6.2884e-18,0,0.52537,0,0,0,45,0,0,0,1,0.62,0
1,0,0,0,0,0,0,0,0,0,0,0,0,0.52936,-1.0545e-15,0,0.52936,0,0,0,45,0,0,0,0,0.64,0
0.97883,0,0,0,0,0,0,0,0,0,0,0,0,0.52933,-0.0016095,0,0.52933,0,0,0,45,0,0,0,0.02,0.64,0
0.95765,0,0,0,0,0,0,0,0,0,0,0,0,0.52926,-0.0032326,0,0.52927,0,0,0,45,0,0,0,0.04,0.64,0
0.93649,0,0,0,0,0,0,0,0,0,0,0,0,0.52913,-0.0048829,0,0.52915,0,0,0,45,0,0,0,0.06,0.64,0
0.91532,0,0,0,0,0,0,0,0,0,0,0,0,0.52894,-0.0065741,0,0.52898,0,0,0,45,0,0,0,0.08,0.64,0
0.89417,0,0,0,0,0,0,0,0,0,0,0,0,0.52869,-0.0083197,0,0.52875,0,0,0,45,0,0,0,0.1,0.64,0
0.87303,0,0,0,0,0,0,0,0,0,0,0,0,0.52835,-0.010133,0,0.52845,0,0,0,45,0,0,0,0.12,0.64,0
0.8519,0,0,0,0,0,0,0,0,0,0,0,0,0.52792,-0.012027,0,0.52806,0,0,0,45,0,0,0,0.14,0.64,0
0.83079,0,0,0,0,0,0,0,0,0,0,0,0,0.52738,-0.014013,0,0.52756,0,0,0,45,0,0,0,0.16,0.64,0
0.80971,0,0,0,0,0,0,0,0,0,0,0,0,0.5267,-0.016103,0,0.52694,0,0,0,45,0,0,0,0.18,0.64,0
0.78866,0,0,0,0,0,0,0,0,0,0,0,0,0.52585,-0.018305,0,0.52617,0,0,0,45,0,0,0,0.2,0.64,0
0.76764,0,0,0,0,0,0,0,0,0,0,0,0,0.5248,-0.020623,0,0.52521,0,0,0,45,0,0,0,0.22,0.64,0
0.74667,0,0,0,0,0,0,0,0,0,0,0,0,0.52351,-0.023057,0,0.52402,0,0,0,45,0,0,0,0.24,0.64,0
0.72576,0,0,0,0,0,0,0,0,0,0,0,0,0.52193,-0.025599,0,0.52256,0,0,0,45,0,0,0,0.26,0.64,0
0.70492,0,0,0,0,0,0,0,0,0,0,0,0,0.52,-0.028229,0,0.52076,0,0,0,45,0,0,0,0.28,0.64,0
0.68416,0,0,0,0,0,0,0,0,0,0,0,0,0.51766,-0.030913,0,0.51858,0,0,0,45,0,0,0,0.3,0.64,0
0.66351,0,0,0,0,0,0,0,0,0,0,0,0,0.51484,-0.033598,0,0.51594,0,0,0,45,0,0,0,0.32,0.64,0
0.64297,0,0,0,0,0,0,0,0,0,0,0,0,0.51148,-0.036208,0,0.51277,0,0,0,45,0,0,0,0.34,0.64,0
0.62259,0,0,0,0,0,0,0,0,0,0,0,0,0.50753,-0.038637,0,0.50901,0,0,0,45,0,0,0,0.36,0.64,0
0.60237,0,0,0,0,0,0,0,0,0,0,0,0,0.50294,-0.04075,0,0.5046,0,0,0,45,0,0,0,0.38,0.64,0
0.58235,0,0,0,0,0,0,0,0,0,0,0,0,0.49771,-0.042376,0,0.49951,0,0,0,45,0,0,0,0.4,0.64,0
0.56256,0,0,0,0,0,0,0,0,0,0,0,0,0.49185,-0.043307,0,0.49376,0,0,0,45,0,0,0,0.42,0.64,0
0.543,0,0,0,0,0,0,0,0,0,0,0,0,0.48546,-0.043307,0,0.4874,0,0,0,45,0,0,0,0.44,0.64,0
0.52372,0,0,0,0,0,0,0,0,0,0,0,0,0.47874,-0.042132,0,0.4806,0,0,0,45,0,0,0,0.46,0.64,0
0.50471,0,0,0,0,0,0,0,0,0,0,0,0,0.47197,-0.039574,0,0.47364,0,0,0,45,0,0,0,0.48,0.64,0
0.48596,0,0,0,0,0,0,0,0,0,0,0,0,0.46552,-0.035529,0,0.46688,0,0,0,45,0,0,0,0.5,0.64,0
0.46747,0,0,0,0,0,0,0,0,0,0,0,0,0.45978,-0.030047,0,0.46076,0,0,0,45,0,0,0,0.52,0.64,0
0.44918,0,0,0,0,0,0,0,0,0,0,0,0,0.45514,-0.023342,0,0.45573,0,0,0,45,0,0,0,0.54,0.64,0
0.43105,0,0,0,0,0,0,0,0,0,0,0,0,0.45186,-0.01574,0,0.45212,0,0,0,45,0,0,0,0.56,0.64,0
0.41303,0,0,0,0,0,0,0,0,0,0,0,0,0.45012,-0.007607,0,0.45017,0,0,0,45,0,0,0,0.58,0.64,0
0.39504,0,0,0,0,0,0,0,0,0,0,0,0,0.45,0.0006956,0,0.44999,0,0,0,45,0,0,0,0.6,0.64,0
0.37703,0,0,0,0,0,0,0,0,0,0,0,0,0.45149,0.0088178,0,0.45157,0,0,0,45,0,0,0,0.62,0.64,0
0.35892,0,0,0,0,0,0,0,0,0,0,0,0,0.45453,0.016399,0,0.45482,0,0,0,45,0,0,0,0.64,0.64,0
0.34067,0,0,0,0,0,0,0,0,0,0,0,0,0.45895,0.023071,0,0.45953,0,0,0,45,0,0,0,0.66,0.64,0
0.32221,0,0,0,0,0,0,0,0,0,0,0,0,0.46447,0.028505,0,0.46535,0,0,0,45,0,0,0,0.68,0.64,0
0.30351,0,0,0,0,0,0,0,0,0,0,0,0,0.47073,0.032481,0,0.47186,0,0,0,45,0,0,0,0.7,0.64,0
0.28455,0,0,0,0,0,0,0,0,0,0,0,0,0.47733,0.03494,0,0.47862,0,0,0,45,0,0,0,0.72,0.64,0
0.26532,0,0,0,0,0,0,0,0,0,0,0,0,0.4839,0.035978,0,0.48524,0,0,0,45,0,0,0,0.74,0.64,0
0.24584,0,0,0,0,0,0,0,0,0,0,0,0,0.49015,0.03579,0,0.49146,0,0,0,45,0,0,0,0.76,0.64,0
0.22611,0,0,0,0,0,0,0,0,0,0,0,0,0.49589,0.034615,0,0.4971,0,0,0,45,0,0,0,0.78,0.64,0
0.20617,0,0,0,0,0,0,0,0,0,0,0,0,0.50101,0.032679,0,0.50208,0,0,0,45,0,0,0,0.8,0.64,0
0.18603,0,0,0,0,0,0,0,0,0,0,0,0,0.50549,0.030182,0,0.50639,0,0,0,45,0,0,0,0.82,0.64,0
0.16573,0,0,0,0,0,0,0,0,0,0,0,0,0.50932,0.027289,0,0.51005,0,0,0,45,0,0,0,0.84,0.64,0
0.14529,0,0,0,0,0,0,0,0,0,0,0,0,0.51253,0.024129,0,0.5131,0,0,0,45,0,0,0,0.86,0.64,0
0.12473,0,0,0,0,0,0,0,0,0,0,0,0,0.51518,0.020803,0,0.5156,0,0,0,45,0,0,0,0.88,0.64,0
0.10407,0,0,0,0,0,0,0,0,0,0,0,0,0.51731,0.017383,0,0.5176,0,0,0,45,0,0,0,0.9,0.64,0
0.083342,0,0,0,0,0,0,0,0,0,0,0,0,0.51897,0.013916,0,0.51915,0,0,0,45,0,0,0,0.92,0.64,0
0.062555,0,0,0,0,0,0,0,0,0,0,0,0,0.52021,0.010434,0,0.52031,0,0,0,45,0,0,0,0.94,0.64,0
0.041725,0,0,0,0,0,0,0,0,0,0,0,0,0.52107,0.0069509,0,0.52111,0,0,0,45,0,0,0,0.96,0.64,0
0.020869,0,0,0,0,0,0,0,0,0,0,0,0,0.52157,0.0034734,0,0.52158,0,0,0,45,0,0,0,0.98,0.64,0
0,0,0,0,0,0,0,0,0,0,0,0,0,0.52173,1.0625e-17,0,0.52173,0,0,0,45,0,0,0,1,0.64,0
1,0,0,0,0,0,0,0,0,0,0,0,0,0.52777,1.2793e-15,0,0.52777,0,0,0,45,0,0,0,0,0.66,0
0.97889,0,0,0,0,0,0,0,0,0,0,0,0,0.52774,-0.0015549,0,0.52774,0,0,0,45,0,0,0,0.02,0.66,0
0.95778,0,0,0,0,0,0,0,0,0,0,0,0,0.52765,-0.0031212,0,0.52766,0,0,0,45,0,0,0,0.04,0.66,0
0.93668,0,0,0,0,0,0,0,0,0,0,0,0,0.52749,-0.0047103,0,0.52751,0,0,0,45,0,0,0,0.06,0.66,0
0.91558,0,0,0,0,0,0,0,0,0,0,0,0,0.52726,-0.0063334,0,0.52729,0,0,0,45,0,0,0,0.08,0.66,0
0.8945,0,0,0,0,0,0,0,0,0,0,0,0,0.52695,-0.0080013,0,0.52701,0,0,0,45,0,0,0,0.1,0.66,0
0.87343,0,0,0,0,0,0,0,0,0,0,0,0,0.52654,-0.0097243,0,0.52663,0,0,0,45,0,0,0,0.12,0.66,0
0.85237,0,0,0,0,0,0,0,0,0,0,0,0,0.52604,-0.011512,0,0.52616,0,0,0,45,0,0,0,0.14,0.66,0
0.83134,0,0,0,0,0,0,0,0,0,0,0,0,0.52541,-0.013372,0,0.52558,0,0,0,45,0,0,0,0.16,0.66,0
0.81034,0,0,0,0,0,0,0,0,0,0,0,0,0.52463,-0.01531,0,0.52486,0,0,0,45,0,0,0,0.18,0.66,0
0.78937,0,0,0,0,0,0,0,0,0,0,0,0,0.52369,-0.017331,0,0.52398,0,0,0,45,0,0,0,0.2,0.66,0
0.76845,0,0,0,0,0,0,0,0,0,0,0,0,0.52255,-0.019432,0,0.52291,0,0,0,45,0,0,0,0.22,0.66,0
0.74757,0,0,0,0,0,0,0,0,0,0,0,0,0.52117,-0.021608,0,0.52162,0,0,0,45,0,0,0,0.24,0.66,0
0.72675,0,0,0,0,0,0,0,0,0,0,0,0,0.51952,-0.023844,0,0.52006,0,0,0,45,0,0,0,0.26,0.66,0
0.70601,0,0,0,0,0,0,0,0,0,0,0,0,0.51755,-0.026115,0,0.5182,0,0,0,45,0,0,0,0.28,0.66,0
0.68535,0,0,0,0,0,0,0,0,0,0,0,0,0.51521,-0.028385,0,0.51599,0,0,0,45,0,0,0,0.3,0.66,0
0.66479,0,0,0,0,0,0,0,0,0,0,0,0,0.51246,-0.030599,0,0.51338,0,0,0,45,0,0,0,0.32,0.66,0
0.64435,0,0,0,0,0,0,0,0,0,0,0,0,0.50926,-0.032685,0,0.51031,0,0,0,45,0,0,0,0.34,0.66,0
0.62405,0,0,0,0,0,0,0,0,0,0,0,0,0.50558,-0.03455,0,0.50677,0,0,0,45,0,0,0,0.36,0.66,0
0.6039,0,0,0,0,0,0,0,0,0,0,0,0,0.50141,-0.036077,0,0.50271,0,0,0,45,0,0,0,0.38,0.66,0
0.58394,0,0,0,0,0,0,0,0,0,0,0,0,0.49675,-0.037127,0,0.49814,0,0,0,45,0,0,0,0.4,0.66,0
0.56416,0,0,0,0,0,0,0,0,0,0,0,0,0.49166,-0.037542,0,0.4931,0,0,0,45,0,0,0,0.42,0.66,0
0.5446,0,0,0,0,0,0,0,0,0,0,0,0,0.48624,-0.037153,0,0.48766,0,0,0,45,0,0,0,0.44,0.66,0
0.52526,0,0,0,0,0,0,0,0,0,0,0,0,0.48065,-0.035804,0,0.48199,0,0,0,45,0,0,0,0.46,0.66,0
0.50615,0,0,0,0,0,0,0,0,0,0,0,0,0.47512,-0.033376,0,0.4763,0,0,0,45,0,0,0,0.48,0.66,0
0.48726,0,0,0,0,0,0,0,0,0,0,0,0,0.46991,-0.029824,0,0.47086,0,0,0,45,0,0,0,0.5,0.66,0
0.46856,0,0,0,0,0,0,0,0,0,0,0,0,0.46531,-0.025199,0,0.466,0,0,0,45,0,0,0,0.52,0.66,0
0.45003,0,0,0,0,0,0,0,0,0,0,0,0,0.46159,-0.019651,0,0.462,0,0,0,45,0,0,0,0.54,0.66,0
0.43163,0,0,0,0,0,0,0,0,0,0,0,0,0.45894,-0.013406,0,0.45913,0,0,0,45,0,0,0,0.56,0.66,0
0.41331,0,0,0,0,0,0,0,0,0,0,0,0,0.45752,-0.0067343,0,0.45756,0,0,0,45,0,0,0,0.58,0.66,0
0.39503,0,0,0,0,0,0,0,0,0,0,0,0,0.45739,7.5835e-05,0,0.45738,0,0,0,45,0,0,0,0.6,0.66,0
0.37672,0,0,0,0,0,0,0,0,0,0,0,0,0.45856,0.0067337,0,0.4586,0,0,0,45,0,0,0,0.62,0.66,0
0.35835,0,0,0,0,0,0,0,0,0,0,0,0,0.46095,0.012951,0,0.46113,0,0,0,45,0,0,0,0.64,0.66,0
0.33985,0,0,0,0,0,0,0,0,0,0,0,0,0.46443,0.018456,0,0.4648,0,0,0,45,0,0,0,0.66,0.66,0
0.32119,0,0,0,0,0,0,0,0,0,0,0,0,0.4688,0.023018,0,0.46936,0,0,0,45,0,0,0,0.68,0.66,0
0.30234,0,0,0,0,0,0,0,0,0,0,0,0,0.47378,0.026483,0,0.47453,0,0,0,45,0,0,0,0.7,0.66,0
0.28329,0,0,0,0,0,0,0,0,0,0,0,0,0.47911,0.028794,0,0.47998,0,0,0,45,0,0,0,0.72,0.66,0
0.26402,0,0,0,0,0,0,0,0,0,0,0,0,0.4845,0.029988,0,0.48543,0,0,0,45,0,0,0,0.74,0.66,0
0.24453,0,0,0,0,0,0,0,0,0,0,0,0,0.48973,0.030176,0,0.49067,0,0,0,45,0,0,0,0.76,0.66,0
0.22484,0,0,0,0,0,0,0,0,0,0,0,0,0.49465,0.029509,0,0.49553,0,0,0,45,0,0,0,0.78,0.66,0
0.20496,0,0,0,0,0,0,0,0,0,0,0,0,0.49913,0.028148,0,0.49993,0,0,0,45,0,0,0,0.8,0.66,0
0.18491,0,0,0,0,0,0,0,0,0,0,0,0,0.50312,0.026244,0,0.50381,0,0,0,45,0,0,0,0.82,0.66,0
0.16471,0,0,0,0,0,0,0,0,0,0,0,0,0.5066,0.023932,0,0.50717,0,0,0,45,0,0,0,0.84,0.66,0
0.14438,0,0,0,0,0,0,0,0,0,0,0,0,0.50957,0.021322,0,0.51002,0,0,0,45,0,0,0,0.86,0.66,0
0.12394,0,0,0,0,0,0,0,0,0,0,0,0,0.51206,0.018505,0,0.5124,0,0,0,45,0,0,0,0.88,0.66,0
0.10341,0,0,0,0,0,0,0,0,0,0,0,0,0.51409,0.01555,0,0.51433,0,0,0,45,0,0,0,0.9,0.66,0
0.082814,0,0,0,0,0,0,0,0,0,0,0,0,0.5157,0.012507,0,0.51585,0,0,0,45,0,0,0,0.92,0.66,0
0.062158,0,0,0,0,0,0,0,0,0,0,0,0,0.51691,0.0094107,0,0.517,0,0,0,45,0,0,0,0.94,0.66,0
0.041461,0,0,0,0,0,0,0,0,0,0,0,0,0.51776,0.0062855,0,0.5178,0,0,0,45,0,0,0,0.96,0.66,0
0.020737,0,0,0,0,0,0,0,0,0,0,0,0,0.51826,0.0031457,0,0.51827,0,0,0,45,0,0,0,0.98,0.66,0
0,0,0,0,0,0,0,0,0,0,0,0,0,0.51843,5.6378e-18,0,0.51842,0,0,0,45,0,0,0,1,0.66,0
1,0,0,0,0,0,0,0,0,0,0,0,0,0.52625,1.2372e-15,0,0.52625,0,0,0,45,0,0,0,0,0.68,0
0.97895,0,0,0,0,0,0,0,0,0,0,0,0,0.52621,-0.0014888,0,0.52621,0,0,0,45,0,0,0,0.02,0.68,0
0.9579,0,0,0,0,0,0,0,0,0,0,0,0,0.5261,-0.002987,0,0.52611,0,0,0,45,0,0,0,0.04,0.68,0
0.93686,0,0,0,0,0,0,0,0,0,0,0,0,0.52592,-0.0045037,0,0.52594,0,0,0,45,0,0,0,0.06,0.68,0
0.91583,0,0,0,0,0,0,0,0,0,0,0,0,0.52565,-0.0060478,0,0.52568,0,0,0,45,0,0,0,0.08,0.68,0
0.89481,0,0,0,0,0,0,0,0,0,0,0,0,0.52529,-0.0076276,0,0.52535,0,0,0,45,0,0,0,0.1,0.68,0
0.87381,0,0,0,0,0,0,0,0,0,0,0,0,0.52484,-0.0092506,0,0.52492,0,0,0,45,0,0,0,0.12,0.68,0
0.85282,0,0,0,0,0,0,0,0,0,0,0,0,0.52427,-0.010923,0,0.52439,0,0,0,45,0,0,0,0.14,0.68,0
0.83186,0,0,0,0,0,0,0,0,0,0,0,0,0.52358,-0.01265,0,0.52373,0,0,0,45,0,0,0,0.16,0.68,0
0.81094,0,0,0,0,0,0,0,0,0,0,0,0,0.52274,-0.014434,0,0.52294,0,0,0,45,0,0,0,0.18,0.68,0
0.79004,0,0,0,0,0,0,0,0,0,0,0,0,0.52173,-0.016274,0,0.52198,0,0,0,45,0,0,0,0.2,0.68,0
0.7692,0,0,0,0,0,0,0,0,0,0,0,0,0.52053,-0.018165,0,0.52084,0,0,0,45,0,0,0,0.22,0.68,0
0.7484,0,0,0,0,0,0,0,0,0,0,0,0,0.5191,-0.020096,0,0.51949,0,0,0,45,0,0,0,0.24,0.68,0
0.72767,0,0,0,0,0,0,0,0,0,0,0,0,0.51742,-0.022049,0,0.51789,0,0,0,45,0,0,0,0.26,0.68,0
0.70701,0,0,0,0,0,0,0,0,0,0,0,0,0.51546,-0.023999,0,0.51602,0,0,0,45,0,0,0,0.28,0.68,0
0.68643,0,0,0,0,0,0,0,0,0,0,0,0,0.51317,-0.025906,0,0.51383,0,0,0,45,0,0,0,0.3,0.68,0
0.66595,0,0,0,0,0,0,0,0,0,0,0,0,0.51054,-0.02772,0,0.51129,0,0,0,45,0,0,0,0.32,0.68,0
0.64559,0,0,0,0,0,0,0,0,0,0,0,0,0.50753,-0.029377,0,0.50838,0,0,0,45,0,0,0,0.34,0.68,0
0.62535,0,0,0,0,0,0,0,0,0,0,0,0,0.50414,-0.030794,0,0.50508,0,0,0,45,0,0,0,0.36,0.68,0
0.60526,0,0,0,0,0,0,0,0,0,0,0,0,0.50037,-0.031875,0,0.50139,0,0,0,45,0,0,0,0.38,0.68,0
0.58532,0,0,0,0,0,0,0,0,0,0,0,0,0.49624,-0.03251,0,0.49731,0,0,0,45,0,0,0,0.4,0.68,0
0.56556,0,0,0,0,0,0,0,0,0,0,0,0,0.49182,-0.032582,0,0.4929,0,0,0,45,0,0,0,0.42,0.68,0
0.54598,0,0,0,0,0,0,0,0,0,0,0,0,0.4872,-0.031973,0,0.48825,0,0,0,45,0,0,0,0.44,0.68,0
0.52658,0,0,0,0,0,0,0,0,0,0,0,0,0.48252,-0.030581,0,0.48349,0,0,0,45,0,0,0,0.46,0.68,0
0.50738,0,0,0,0,0,0,0,0,0,0,0,0,0.47795,-0.028338,0,0.47879,0,0,0,45,0,0,0,0.48,0.68,0
0.48835,0,0,0,0,0,0,0,0,0,0,0,0,0.47369,-0.025229,0,0.47437,0,0,0,45,0,0,0,0.5,0.68,0
0.46948,0,0,0,0,0,0,0,0,0,0,0,0,0.46996,-0.021302,0,0.47044,0,0,0,45,0,0,0,0.52,0.68,0
0.45075,0,0,0,0,0,0,0,0,0,0,0,0,0.46693,-0.01667,0,0.46723,0,0,0,45,0,0,0,0.54,0.68,0
0.43213,0,0,0,0,0,0,0,0,0,0,0,0,0.46478,-0.011501,0,0.46491,0,0,0,45,0,0,0,0.56,0.68,0
0.41357,0,0,0,0,0,0,0,0,0,0,0,0,0.4636,-0.0060004,0,0.46364,0,0,0,45,0,0,0,0.58,0.68,0
0.39504,0,0,0,0,0,0,0,0,0,0,0,0,0.46347,-0.00039186,0,0.46346,0,0,0,45,0,0,0,0.6,0.68,0
0.37649,0,0,0,0,0,0,0,0,0,0,0,0,0.46437,0.0050932,0,0.46439,0,0,0,45,0,0,0,0.62,0.68,0
0.35789,0,0,0,0,0,0,0,0,0,0,0,0,0.46625,0.010229,0,0.46636,0,0,0,45,0,0,0,0.64,0.68,0
0.33919,0,0,0,0,0,0,0,0,0,0,0,0,0.46902,0.014809,0,0.46925,0,0,0,45,0,0,0,0.66,0.68,0
0.32037,0,0,0,0,0,0,0,0,0,0,0,0,0.4725,0.018663,0,0.47287,0,0,0,45,0,0,0,0.68,0.68,0
0.30139,0,0,0,0,0,0,0,0,0,0,0,0,0.4765,0.021674,0,0.477,0,0,0,45,0,0,0,0.7,0.68,0
0.28225,0,0,0,0,0,0,0,0,0,0,0,0,0.48083,0.023788,0,0.48142,0,0,0,45,0,0,0,0.72,0.68,0
0.26293,0,0,0,0,0,0,0,0,0,0,0,0,0.48528,0.025016,0,0.48593,0,0,0,45,0,0,0,0.74,0.68,0
0.24343,0,0,0,0,0,0,0,0,0,0,0,0,0.48967,0.02542,0,0.49033,0,0,0,45,0,0,0,0.76,0.68,0
0.22375,0,0,0,0,0,0,0,0,0,0,0,0,0.49386,0.025094,0,0.4945,0,0,0,45,0,0,0,0.78,0.68,0
0.20392,0,0,0,0,0,0,0,0,0,0,0,0,0.49775,0.024153,0,0.49834,0,0,0,45,0,0,0,0.8,0.68,0
0.18393,0,0,0,0,0,0,0,0,0,0,0,0,0.50127,0.022707,0,0.50179,0,0,0,45,0,0,0,0.82,0.68,0
0.16381,0,0,0,0,0,0,0,0,0,0,0,0,0.5044,0.020864,0,0.50483,0,0,0,45,0,0,0,0.84,0.68,0
0.14358,0,0,0,0,0,0,0,0,0,0,0,0,0.50711,0.018716,0,0.50745,0,0,0,45,0,0,0,0.86,0.68,0
0.12325,0,0,0,0,0,0,0,0,0,0,0,0,0.5094,0.01634,0,0.50967,0,0,0,45,0,0,0,0.88,0.68,0
0.10283,0,0,0,0,0,0,0,0,0,0,0,0,0.51131,0.0138,0,0.51149,0,0,0,45,0,0,0,0.9,0.68,0
0.082341,0,0,0,0,0,0,0,0,0,0,0,0,0.51283,0.011146,0,0.51295,0,0,0,45,0,0,0,0.92,0.68,0
0.061802,0,0,0,0,0,0,0,0,0,0,0,0,0.51399,0.008414,0,0.51405,0,0,0,45,0,0,0,0.94,0.68,0
0.041223,0,0,0,0,0,0,0,0,0,0,0,0,0.5148,0.005633,0,0.51483,0,0,0,45,0,0,0,0.96,0.68,0
0.020618,0,0,0,0,0,0,0,0,0,0,0,0,0.51528,0.0028231,0,0.51529,0,0,0,45,0,0,0,0.98,0.68,0
0,0,0,0,0,0,0,0,0,0,0,0,0,0.51544,-5.9631e-18,0,0.51544,0,0,0,45,0,0,0,1,0.68,0
1,0,0,0,0,0,0,0,0,0,0,0,0,0.52479,1.0825e-15,0,0.52479,0,0,0,45,0,0,0,0,0.7,0
0.97901,0,0,0,0,0,0,0,0,0,0,0,0,0.52475,-0.0014134,0,0.52475,0,0,0,45,0,0,0,0.02,0.7,0
0.95802,0,0,0,0,0,0,0,0,0,0,0,0,0.52463,-0.0028342,0,0.52464,0,0,0,45,0,0,0,0.04,0.7,0
0.93704,0,0,0,0,0,0,0,0,0,0,0,0,0.52443,-0.0042695,0,0.52444,0,0,0,45,0,0,0,0.06,0.7,0
0.91607,0,0,0,0,0,0,0,0,0,0,0,0,0.52413,-0.0057261,0,0.52416,0,0,0,45,0,0,0,0.08,0.7,0
0.89511,0,0,0,0,0,0,0,0,0,0,0,0,0.52374,-0.0072102,0,0.52379,0,0,0,45,0,0,0,0.1,0.7,0
0.87417,0,0,0,0,0,0,0,0,0,0,0,0,0.52325,-0.0087268,0,0.52332,0,0,0,45,0,0,0,0.12,0.7,0
0.85325,0,0,0,0,0,0,0,0,0,0,0,0,0.52264,-0.01028,0,0.52274,0,0,0,45,0,0,0,0.14,0.7,0
0.83235,0,0,0,0,0,0,0,0,0,0,0,0,0.5219,-0.011871,0,0.52203,0,0,0,45,0,0,0,0.16,0.7,0
0.81149,0,0,0,0,0,0,0,0,0,0,0,0,0.52101,-0.013501,0,0.52119,0,0,0,45,0,0,0,0.18,0.7,0
0.79067,0,0,0,0,0,0,0,0,0,0,0,0,0.51996,-0.015164,0,0.52018,0,0,0,45,0,0,0,0.2,0.7,0
0.7699,0,0,0,0,0,0,0,0,0,0,0,0,0.51873,-0.016854,0,0.519,0,0,0,45,0,0,0,0.22,0.7,0
0.74918,0,0,0,0,0,0,0,0,0,0,0,0,0.51729,-0.018558,0,0.51762,0,0,0,45,0,0,0,0.24,0.7,0
0.72852,0,0,0,0,0,0,0,0,0,0,0,0,0.51561,-0.020255,0,0.51601,0,0,0,45,0,0,0,0.26,0.7,0
0.70793,0,0,0,0,0,0,0,0,0,0,0,0,0.51369,-0.02192,0,0.51416,0,0,0,45,0,0,0,0.28,0.7,0
0.68742,0,0,0,0,0,0,0,0,0,0,0,0,0.51149,-0.023515,0,0.51203,0,0,0,45,0,0,0,0.3,0.7,0
0.66701,0,0,0,0,0,0,0,0,0,0,0,0,0.50899,-0.024995,0,0.50961,0,0,0,45,0,0,0,0.32,0.7,0
0.6467,0,0,0,0,0,0,0,0,0,0,0,0,0.50619,-0.026302,0,0.50688,0,0,0,45,0,0,0,0.34,0.7,0
0.62651,0,0,0,0,0,0,0,0,0,0,0,0,0.50309,-0.027367,0,0.50383,0,0,0,45,0,0,0,0.36,0.7,0
0.60645,0,0,0,0,0,0,0,0,0,0,0,0,0.49969,-0.028114,0,0.50048,0,0,0,45,0,0,0,0.38,0.7,0
0.58654,0,0,0,0,0,0,0,0,0,0,0,0,0.49604,-0.028457,0,0.49686,0,0,0,45,0,0,0,0.4,0.7,0
0.56677,0,0,0,0,0,0,0,0,0,0,0,0,0.4922,-0.028308,0,0.49301,0,0,0,45,0,0,0,0.42,0.7,0
0.54716,0,0,0,0,0,0,0,0,0,0,0,0,0.48824,-0.027586,0,0.48902,0,0,0,45,0,0,0,0.44,0.7,0
0.52771,0,0,0,0,0,0,0,0,0,0,0,0,0.48429,-0.026225,0,0.485,0,0,0,45,0,0,0,0.46,0.7,0
0.50842,0,0,0,0,0,0,0,0,0,0,0,0,0.48047,-0.024188,0,0.48108,0,0,0,45,0,0,0,0.48,0.7,0
0.48927,0,0,0,0,0,0,0,0,0,0,0,0,0.47695,-0.021474,0,0.47743,0,0,0,45,0,0,0,0.5,0.7,0
0.47026,0,0,0,0,0,0,0,0,0,0,0,0,0.47387,-0.018128,0,0.47422,0,0,0,45,0,0,0,0.52,0.7,0
0.45136,0,0,0,0,0,0,0,0,0,0,0,0,0.47139,-0.014239,0,0.4716,0,0,0,45,0,0,0,0.54,0.7,0
0.43255,0,0,0,0,0,0,0,0,0,0,0,0,0.46961,-0.0099357,0,0.46971,0,0,0,45,0,0,0,0.56,0.7,0
0.4138,0,0,0,0,0,0,0,0,0,0,0,0,0.46863,-0.0053759,0,0.46866,0,0,0,45,0,0,0,0.58,0.7,0
0.39506,0,0,0,0,0,0,0,0,0,0,0,0,0.46848,-0.00073451,0,0.46848,0,0,0,45,0,0,0,0.6,0.7,0
0.37632,0,0,0,0,0,0,0,0,0,0,0,0,0.46918,0.0038075,0,0.46919,0,0,0,45,0,0,0,0.62,0.7,0
0.35753,0,0,0,0,0,0,0,0,0,0,0,0,0.47067,0.0080745,0,0.47073,0,0,0,45,0,0,0,0.64,0.7,0
0.33866,0,0,0,0,0,0,0,0,0,0,0,0,0.47287,0.011907,0,0.47302,0,0,0,45,0,0,0,0.66,0.7,0
0.3197,0,0,0,0,0,0,0,0,0,0,0,0,0.47566,0.015175,0,0.47591,0,0,0,45,0,0,0,0.68,0.7,0
0.30061,0,0,0,0,0,0,0,0,0,0,0,0,0.47891,0.017784,0,0.47924,0,0,0,45,0,0,0,0.7,0.7,0
0.28139,0,0,0,0,0,0,0,0,0,0,0,0,0.48245,0.019688,0,0.48285,0,0,0,45,0,0,0,0.72,0.7,0
0.26201,0,0,0,0,0,0,0,0,0,0,0,0,0.48613,0.02088,0,0.48658,0,0,0,45,0,0,0,0.74,0.7,0
0.24249,0,0,0,0,0,0,0,0,0,0,0,0,0.48981,0.021396,0,0.49028,0,0,0,45,0,0,0,0.76,0.7,0
0.22283,0,0,0,0,0,0,0,0,0,0,0,0,0.49338,0.021296,0,0.49384,0,0,0,45,0,0,0,0.78,0.7,0
0.20303,0,0,0,0,0,0,0,0,0,0,0,0,0.49674,0.020658,0,0.49717,0,0,0,45,0,0,0,0.8,0.7,0
0.18309,0,0,0,0,0,0,0,0,0,0,0,0,0.49983,0.019564,0,0.50022,0,0,0,45,0,0,0,0.82,0.7,0
0.16304,0,0,0,0,0,0,0,0,0,0,0,0,0.50261,0.018097,0,0.50294,0,0,0,45,0,0,0,0.84,0.7,0
0.14288,0,0,0,0,0,0,0,0,0,0,0,0,0.50505,0.016331,0,0.50531,0,0,0,45,0,0,0,0.86,0.7,0
0.12263,0,0,0,0,0,0,0,0,0,0,0,0,0.50715,0.014334,0,0.50735,0,0,0,45,0,0,0,0.88,0.7,0
0.10231,0,0,0,0,0,0,0,0,0,0,0,0,0.5089,0.012161,0,0.50904,0,0,0,45,0,0,0,0.9,0.7,0
0.081922,0,0,0,0,0,0,0,0,0,0,0,0,0.51031,0.0098587,0,0.51041,0,0,0,45,0,0,0,0.92,0.7,0
0.061485,0,0,0,0,0,0,0,0,0,0,0,0,0.5114,0.0074643,0,0.51145,0,0,0,45,0,0,0,0.94,0.7,0
0.04101,0,0,0,0,0,0,0,0,0,0,0,0,0.51217,0.0050077,0,0.51219,0,0,0,45,0,0,0,0.96,0.7,0
0.020511,0,0,0,0,0,0,0,0,0,0,0,0,0.51263,0.0025129,0,0.51263,0,0,0,45,0,0,0,0.98,0.7,0
0,0,0,0,0,0,0,0,0,0,0,0,0,0.51278,-3.0358e-18,0,0.51278,0,0,0,45,0,0,0,1,0.7,0
1,0,0,0,0,0,0,0,0,0,0,0,0,0.52342,3.0808e-16,0,0.52342,0,0,0,45,0,0,0,0,0.72,0
0.97906,0,0,0,0,0,0,0,0,0,0,0,0,0.52338,-0.0013306,0,0.52338,0,0,0,45,0,0,0,0.02,0.72,0
0.95813,0,0,0,0,0,0,0,0,0,0,0,0,0.52325,-0.0026667,0,0.52325,0,0,0,45,0,0,0,0.04,0.72,0
0.9372,0,0,0,0,0,0,0,0,0,0,0,0,0.52302,-0.0040138,0,0.52304,0,0,0,45,0,0,0,0.06,0.72,0
0.91629,0,0,0,0,0,0,0,0,0,0,0,0,0.52271,-0.0053768,0,0.52274,0,0,0,45,0,0,0,0.08,0.72,0
0.89539,0,0,0,0,0,0,0,0,0,0,0,0,0.52229,-0.0067598,0,0.52234,0,0,0,45,0,0,0,0.1,0.72,0
0.8745,0,0,0,0,0,0,0,0,0,0,0,0,0.52177,-0.008166,0,0.52184,0,0,0,45,0,0,0,0.12,0.72,0
0.85364,0,0,0,0,0,0,0,0,0,0,0,0,0.52113,-0.0095972,0,0.52122,0,0,0,45,0,0,0,0.14,0.72,0
0.83281,0,0,0,0,0,0,0,0,0,0,0,0,0.52036,-0.011053,0,0.52048,0,0,0,45,0,0,0,0.16,0.72,0
0.81202,0,0,0,0,0,0,0,0,0,0,0,0,0.51945,-0.012531,0,0.5196,0,0,0,45,0,0,0,0.18,0.72,0
0.79126,0,0,0,0,0,0,0,0,0,0,0,0,0.51838,-0.014026,0,0.51857,0,0,0,45,0,0,0,0.2,0.72,0
0.77055,0,0,0,0,0,0,0,0,0,0,0,0,0.51713,-0.015528,0,0.51737,0,0,0,45,0,0,0,0.22,0.72,0
0.74989,0,0,0,0,0,0,0,0,0,0,0,0,0.5157,-0.017023,0,0.51598,0,0,0,45,0,0,0,0.24,0.72,0
0.72929,0,0,0,0,0,0,0,0,0,0,0,0,0.51406,-0.018491,0,0.51439,0,0,0,45,0,0,0,0.26,0.72,0
0.70876,0,0,0,0,0,0,0,0,0,0,0,0,0.5122,-0.019907,0,0.51258,0,0,0,45,0,0,0,0.28,0.72,0
0.68831,0,0,0,0,0,0,0,0,0,0,0,0,0.5101,-0.021236,0,0.51054,0,0,0,45,0,0,0,0.3,0.72,0
0.66795,0,0,0,0,0,0,0,0,0,0,0,0,0.50775,-0.022438,0,0.50825,0,0,0,45,0,0,0,0.32,0.72,0
0.64769,0,0,0,0,0,0,0,0,0,0,0,0,0.50516,-0.023464,0,0.50571,0,0,0,45,0,0,0,0.34,0.72,0
0.62754,0,0,0,0,0,0,0,0,0,0,0,0,0.50233,-0.024258,0,0.50292,0,0,0,45,0,0,0,0.36,0.72,0
0.60751,0,0,0,0,0,0,0,0,0,0,0,0,0.49928,-0.024757,0,0.49989,0,0,0,45,0,0,0,0.38,0.72,0
0.5876,0,0,0,0,0,0,0,0,0,0,0,0,0.49605,-0.024896,0,0.49667,0,0,0,45,0,0,0,0.4,0.72,0
0.56782,0,0,0,0,0,0,0,0,0,0,0,0,0.49269,-0.024612,0,0.49331,0,0,0,45,0,0,0,0.42,0.72,0
0.54818,0,0,0,0,0,0,0,0,0,0,0,0,0.48928,-0.023847,0,0.48987,0,0,0,45,0,0,0,0.44,0.72,0
0.52868,0,0,0,0,0,0,0,0,0,0,0,0,0.48592,-0.02256,0,0.48644,0,0,0,45,0,0,0,0.46,0.72,0
0.50931,0,0,0,0,0,0,0,0,0,0,0,0,0.4827,-0.020731,0,0.48315,0,0,0,45,0,0,0,0.48,0.72,0
0.49006,0,0,0,0,0,0,0,0,0,0,0,0,0.47975,-0.018368,0,0.48011,0,0,0,45,0,0,0,0.5,0.72,0
0.47093,0,0,0,0,0,0,0,0,0,0,0,0,0.47719,-0.01551,0,0.47744,0,0,0,45,0,0,0,0.52,0.72,0
0.45189,0,0,0,0,0,0,0,0,0,0,0,0,0.47512,-0.012232,0,0.47528,0,0,0,45,0,0,0,0.54,0.72,0
0.43292,0,0,0,0,0,0,0,0,0,0,0,0,0.47364,-0.0086321,0,0.47372,0,0,0,45,0,0,0,0.56,0.72,0
0.414,0,0,0,0,0,0,0,0,0,0,0,0,0.4728,-0.0048348,0,0.47282,0,0,0,45,0,0,0,0.58,0.72,0
0.3951,0,0,0,0,0,0,0,0,0,0,0,0,0.47265,-0.00097618,0,0.47265,0,0,0,45,0,0,0,0.6,0.72,0
0.37619,0,0,0,0,0,0,0,0,0,0,0,0,0.47318,0.0028024,0,0.47318,0,0,0,45,0,0,0,0.62,0.72,0
0.35724,0,0,0,0,0,0,0,0,0,0,0,0,0.47435,0.0063637,0,0.4744,0,0,0,45,0,0,0,0.64,0.72,0
0.33824,0,0,0,0,0,0,0,0,0,0,0,0,0.47612,0.0095838,0,0.47621,0,0,0,45,0,0,0,0.66,0.72,0
0.31915,0,0,0,0,0,0,0,0,0,0,0,0,0.47837,0.01236,0,0.47853,0,0,0,45,0,0,0,0.68,0.72,0
0.29997,0,0,0,0,0,0,0,0,0,0,0,0,0.48102,0.014616,0,0.48124,0,0,0,45,0,0,0,0.7,0.72,0
0.28067,0,0,0,0,0,0,0,0,0,0,0,0,0.48393,0.01631,0,0.4842,0,0,0,45,0,0,0,0.72,0.72,0
0.26126,0,0,0,0,0,0,0,0,0,0,0,0,0.48699,0.017431,0,0.4873,0,0,0,45,0,0,0,0.74,0.72,0
0.24171,0,0,0,0,0,0,0,0,0,0,0,0,0.49008,0.017994,0,0.49042,0,0,0,45,0,0,0,0.76,0.72,0
0.22205,0,0,0,0,0,0,0,0,0,0,0,0,0.49312,0.018038,0,0.49345,0,0,0,45,0,0,0,0.78,0.72,0
0.20226,0,0,0,0,0,0,0,0,0,0,0,0,0.49601,0.017617,0,0.49633,0,0,0,45,0,0,0,0.8,0.72,0
0.18237,0,0,0,0,0,0,0,0,0,0,0,0,0.49871,0.016791,0,0.499,0,0,0,45,0,0,0,0.82,0.72,0
0.16237,0,0,0,0,0,0,0,0,0,0,0,0,0.50116,0.015624,0,0.50141,0,0,0,45,0,0,0,0.84,0.72,0
0.14227,0,0,0,0,0,0,0,0,0,0,0,0,0.50334,0.014175,0,0.50354,0,0,0,45,0,0,0,0.86,0.72,0
0.1221,0,0,0,0,0,0,0,0,0,0,0,0,0.50523,0.0125,0,0.50539,0,0,0,45,0,0,0,0.88,0.72,0
0.10186,0,0,0,0,0,0,0,0,0,0,0,0,0.50683,0.010648,0,0.50694,0,0,0,45,0,0,0,0.9,0.72,0
0.081553,0,0,0,0,0,0,0,0,0,0,0,0,0.50813,0.0086612,0,0.5082,0,0,0,45,0,0,0,0.92,0.72,0
0.061205,0,0,0,0,0,0,0,0,0,0,0,0,0.50914,0.0065749,0,0.50918,0,0,0,45,0,0,0,0.94,0.72,0
0.040822,0,0,0,0,0,0,0,0,0,0,0,0,0.50985,0.0044194,0,0.50987,0,0,0,45,0,0,0,0.96,0.72,0
0.020417,0,0,0,0,0,0,0,0,0,0,0,0,0.51028,0.0022202,0,0.51028,0,0,0,45,0,0,0,0.98,0.72,0
0,0,0,0,0,0,0,0,0,0,0,0,0,0.51042,8.6736e-19,0,0.51042,0,0,0,45,0,0,0,1,0.72,0
1,0,0,0,0,0,0,0,0,0,0,0,0,0.52213,-7.2831e-16,0,0.52213,0,0,0,45,0,0,0,0,0.74,0
0.97911,0,0,0,0,0,0,0,0,0,0,0,0,0.52209,-0.001242,0,0.52209,0,0,0,45,0,0,0,0.02,0.74,0
0.95823,0,0,0,0,0,0,0,0,0,0,0,0,0.52195,-0.0024881,0,0.52195,0,0,0,45,0,0,0,0.04,0.74,0
0.93736,0,0,0,0,0,0,0,0,0,0,0,0,0.52172,-0.003742,0,0.52173,0,0,0,45,0,0,0,0.06,0.74,0
0.9165,0,0,0,0,0,0,0,0,0,0,0,0,0.52139,-0.005007,0,0.52141,0,0,0,45,0,0,0,0.08,0.74,0
0.89565,0,0,0,0,0,0,0,0,0,0,0,0,0.52095,-0.0062858,0,0.52099,0,0,0,45,0,0,0,0.1,0.74,0
0.87482,0,0,0,0,0,0,0,0,0,0,0,0,0.52041,-0.0075797,0,0.52047,0,0,0,45,0,0,0,0.12,0.74,0
0.85401,0,0,0,0,0,0,0,0,0,0,0,0,0.51975,-0.008889,0,0.51983,0,0,0,45,0,0,0,0.14,0.74,0
0.83324,0,0,0,0,0,0,0,0,0,0,0,0,0.51896,-0.010212,0,0.51906,0,0,0,45,0,0,0,0.16,0.74,0
0.8125,0,0,0,0,0,0,0,0,0,0,0,0,0.51804,-0.011544,0,0.51817,0,0,0,45,0,0,0,0.18,0.74,0
0.7918,0,0,0,0,0,0,0,0,0,0,0,0,0.51697,-0.012879,0,0.51713,0,0,0,45,0,0,0,0.2,0.74,0
0.77114,0,0,0,0,0,0,0,0,0,0,0,0,0.51573,-0.014207,0,0.51593,0,0,0,45,0,0,0,0.22,0.74,0
0.75054,0,0,0,0,0,0,0,0,0,0,0,0,0.51432,-0.015513,0,0.51456,0,0,0,45,0,0,0,0.24,0.74,0
0.72999,0,0,0,0,0,0,0,0,0,0,0,0,0.51273,-0.016777,0,0.51301,0,0,0,45,0,0,0,0.26,0.74,0
0.70952,0,0,0,0,0,0,0,0,0,0,0,0,0.51094,-0.017977,0,0.51126,0,0,0,45,0,0,0,0.28,0.74,0
0.68912,0,0,0,0,0,0,0,0,0,0,0,0,0.50896,-0.019081,0,0.50931,0,0,0,45,0,0,0,0.3,0.74,0
0.6688,0,0,0,0,0,0,0,0,0,0,0,0,0.50676,-0.020055,0,0.50716,0,0,0,45,0,0,0,0.32,0.74,0
0.64858,0,0,0,0,0,0,0,0,0,0,0,0,0.50437,-0.020857,0,0.5048,0,0,0,45,0,0,0,0.34,0.74,0
0.62845,0,0,0,0,0,0,0,0,0,0,0,0,0.50179,-0.021442,0,0.50225,0,0,0,45,0,0,0,0.36,0.74,0
0.60843,0,0,0,0,0,0,0,0,0,0,0,0,0.49905,-0.02176,0,0.49953,0,0,0,45,0,0,0,0.38,0.74,0
0.58853,0,0,0,0,0,0,0,0,0,0,0,0,0.49619,-0.021761,0,0.49667,0,0,0,45,0,0,0,0.4,0.74,0
0.56874,0,0,0,0,0,0,0,0,0,0,0,0,0.49324,-0.0214,0,0.49371,0,0,0,45,0,0,0,0.42,0.74,0
0.54907,0,0,0,0,0,0,0,0,0,0,0,0,0.49029,-0.020638,0,0.49073,0,0,0,45,0,0,0,0.44,0.74,0
0.52952,0,0,0,0,0,0,0,0,0,0,0,0,0.4874,-0.019447,0,0.48779,0,0,0,45,0,0,0,0.46,0.74,0
0.51008,0,0,0,0,0,0,0,0,0,0,0,0,0.48466,-0.017819,0,0.48499,0,0,0,45,0,0,0,0.48,0.74,0
0.49074,0,0,0,0,0,0,0,0,0,0,0,0,0.48217,-0.015766,0,0.48243,0,0,0,45,0,0,0,0.5,0.74,0
0.4715,0,0,0,0,0,0,0,0,0,0,0,0,0.48001,-0.013324,0,0.48019,0,0,0,45,0,0,0,0.52,0.74,0
0.45234,0,0,0,0,0,0,0,0,0,0,0,0,0.47827,-0.010552,0,0.47838,0,0,0,45,0,0,0,0.54,0.74,0
0.43324,0,0,0,0,0,0,0,0,0,0,0,0,0.47701,-0.007531,0,0.47707,0,0,0,45,0,0,0,0.56,0.74,0
0.41418,0,0,0,0,0,0,0,0,0,0,0,0,0.47629,-0.0043567,0,0.4763,0,0,0,45,0,0,0,0.58,0.74,0
0.39514,0,0,0,0,0,0,0,0,0,0,0,0,0.47612,-0.0011364,0,0.47612,0,0,0,45,0,0,0,0.6,0.74,0
0.37609,0,0,0,0,0,0,0,0,0,0,0,0,0.47652,0.0020189,0,0.47652,0,0,0,45,0,0,0,0.62,0.74,0
0.35702,0,0,0,0,0,0,0,0,0,0,0,0,0.47745,0.0050016,0,0.47747,0,0,0,45,0,0,0,0.64,0.74,0
0.3379,0,0,0,0,0,0,0,0,0,0,0,0,0.47886,0.0077141,0,0.47892,0,0,0,45,0,0,0,0.66,0.74,0
0.31871,0,0,0,0,0,0,0,0,0,0,0,0,0.48069,0.010075,0,0.4808,0,0,0,45,0,0,0,0.68,0.74,0
0.29944,0,0,0,0,0,0,0,0,0,0,0,0,0.48286,0.012022,0,0.48301,0,0,0,45,0,0,0,0.7,0.74,0
0.28008,0,0,0,0,0,0,0,0,0,0,0,0,0.48526,0.013517,0,0.48545,0,0,0,45,0,0,0,0.72,0.74,0
0.26062,0,0,0,0,0,0,0,0,0,0,0,0,0.48781,0.014546,0,0.48803,0,0,0,45,0,0,0,0.74,0.74,0
0.24106,0,0,0,0,0,0,0,0,0,0,0,0,0.49042,0.015115,0,0.49066,0,0,0,45,0,0,0,0.76,0.74,0
0.22139,0,0,0,0,0,0,0,0,0,0,0,0,0.493,0.015248,0,0.49324,0,0,0,45,0,0,0,0.78,0.74,0
0.20161,0,0,0,0,0,0,0,0,0,0,0,0,0.4955,0.014981,0,0.49572,0,0,0,45,0,0,0,0.8,0.74,0
0.18175,0,0,0,0,0,0,0,0,0,0,0,0,0.49784,0.01436,0,0.49805,0,0,0,45,0,0,0,0.82,0.74,0
0.16179,0,0,0,0,0,0,0,0,0,0,0,0,0.49999,0.013431,0,0.50017,0,0,0,45,0,0,0,0.84,0.74,0
0.14175,0,0,0,0,0,0,0,0,0,0,0,0,0.50193,0.012243,0,0.50208,0,0,0,45,0,0,0,0.86,0.74,0
0.12163,0,0,0,0,0,0,0,0,0,0,0,0,0.50362,0.010841,0,0.50374,0,0,0,45,0,0,0,0.88,0.74,0
0.10146,0,0,0,0,0,0,0,0,0,0,0,0,0.50506,0.0092681,0,0.50514,0,0,0,45,0,0,0,0.9,0.74,0
0.081229,0,0,0,0,0,0,0,0,0,0,0,0,0.50624,0.0075611,0,0.5063,0,0,0,45,0,0,0,0.92,0.74,0
0.060959,0,0,0,0,0,0,0,0,0,0,0,0,0.50716,0.0057532,0,0.50719,0,0,0,45,0,0,0,0.94,0.74,0
0.040657,0,0,0,0,0,0,0,0,0,0,0,0,0.50782,0.0038736,0,0.50783,0,0,0,45,0,0,0,0.96,0.74,0
0.020334,0,0,0,0,0,0,0,0,0,0,0,0,0.50821,0.001948,0,0.50821,0,0,0,45,0,0,0,0.98,0.74,0
0,0,0,0,0,0,0,0,0,0,0,0,0,0.50834,2.7105e-18,0,0.50834,0,0,0,45,0,0,0,1,0.74,0
1,0,0,0,0,0,0,0,0,0,0,0,0,0.52094,-4.0836e-16,0,0.52094,0,0,0,45,0,0,0,0,0.76,0
0.97916,0,0,0,0,0,0,0,0,0,0,0,0,0.52089,-0.0011494,0,0.52089,0,0,0,45,0,0,0,0.02,0.76,0
0.95833,0,0,0,0,0,0,0,0,0,0,0,0,0.52075,-0.0023015,0,0.52075,0,0,0,45,0,0,0,0.04,0.76,0
0.9375,0,0,0,0,0,0,0,0,0,0,0,0,0.52051,-0.0034588,0,0.52052,0,0,0,45,0,0,0,0.06,0.76,0
0.91669,0,0,0,0,0,0,0,0,0,0,0,0,0.52017,-0.0046232,0,0.52019,0,0,0,45,0,0,0,0.08,0.76,0
0.89589,0,0,0,0,0,0,0,0,0,0,0,0,0.51972,-0.005796,0,0.51975,0,0,0,45,0,0,0,0.1,0.76,0
0.87511,0,0,0,0,0,0,0,0,0,0,0,0,0.51917,-0.0069775,0,0.51921,0,0,0,45,0,0,0,0.12,0.76,0
0.85436,0,0,0,0,0,0,0,0,0,0,0,0,0.5185,-0.0081664,0,0.51856,0,0,0,45,0,0,0,0.14,0.76,0
0.83363,0,0,0,0,0,0,0,0,0,0,0,0,0.5177,-0.00936,0,0.51779,0,0,0,45,0,0,0,0.16,0.76,0
0.81294,0,0,0,0,0,0,0,0,0,0,0,0,0.51678,-0.010553,0,0.51689,0,0,0,45,0,0,0,0.18,0.76,0
0.79229,0,0,0,0,0,0,0,0,0,0,0,0,0.51572,-0.011739,0,0.51585,0,0,0,45,0,0,0,0.2,0.76,0
0.77168,0,0,0,0,0,0,0,0,0,0,0,0,0.5145,-0.012906,0,0.51466,0,0,0,45,0,0,0,0.22,0.76,0
0.75113,0,0,0,0,0,0,0,0,0,0,0,0,0.51313,-0.014041,0,0.51332,0,0,0,45,0,0,0,0.24,0.76,0
0.73063,0,0,0,0,0,0,0,0,0,0,0,0,0.5116,-0.015127,0,0.51182,0,0,0,45,0,0,0,0.26,0.76,0
0.7102,0,0,0,0,0,0,0,0,0,0,0,0,0.50989,-0.01614,0,0.51015,0,0,0,45,0,0,0,0.28,0.76,0
0.68984,0,0,0,0,0,0,0,0,0,0,0,0,0.50802,-0.017056,0,0.50831,0,0,0,45,0,0,0,0.3,0.76,0
0.66956,0,0,0,0,0,0,0,0,0,0,0,0,0.50598,-0.017843,0,0.50629,0,0,0,45,0,0,0,0.32,0.76,0
0.64936,0,0,0,0,0,0,0,0,0,0,0,0,0.50377,-0.018467,0,0.50411,0,0,0,45,0,0,0,0.34,0.76,0
0.62926,0,0,0,0,0,0,0,0,0,0,0,0,0.50143,-0.018892,0,0.50178,0,0,0,45,0,0,0,0.36,0.76,0
0.60925,0,0,0,0,0,0,0,0,0,0,0,0,0.49896,-0.019079,0,0.49933,0,0,0,45,0,0,0,0.38,0.76,0
0.58934,0,0,0,0,0,0,0,0,0,0,0,0,0.49641,-0.018991,0,0.49677,0,0,0,45,0,0,0,0.4,0.76,0
0.56954,0,0,0,0,0,0,0,0,0,0,0,0,0.49382,-0.018595,0,0.49417,0,0,0,45,0,0,0,0.42,0.76,0
0.54983,0,0,0,0,0,0,0,0,0,0,0,0,0.49124,-0.017862,0,0.49156,0,0,0,45,0,0,0,0.44,0.76,0
0.53024,0,0,0,0,0,0,0,0,0,0,0,0,0.48873,-0.016778,0,0.48902,0,0,0,45,0,0,0,0.46,0.76,0
0.51074,0,0,0,0,0,0,0,0,0,0,0,0,0.48638,-0.01534,0,0.48662,0,0,0,45,0,0,0,0.48,0.76,0
0.49133,0,0,0,0,0,0,0,0,0,0,0,0,0.48425,-0.013562,0,0.48444,0,0,0,45,0,0,0,0.5,0.76,0
0.472,0,0,0,0,0,0,0,0,0,0,0,0,0.4824,-0.011475,0,0.48254,0,0,0,45,0,0,0,0.52,0.76,0
0.45273,0,0,0,0,0,0,0,0,0,0,0,0,0.48092,-0.0091285,0,0.481,0,0,0,45,0,0,0,0.54,0.76,0
0.43352,0,0,0,0,0,0,0,0,0,0,0,0,0.47984,-0.0065864,0,0.47988,0,0,0,45,0,0,0,0.56,0.76,0
0.41435,0,0,0,0,0,0,0,0,0,0,0,0,0.4792,-0.0039256,0,0.47921,0,0,0,45,0,0,0,0.58,0.76,0
0.39519,0,0,0,0,0,0,0,0,0,0,0,0,0.47902,-0.0012307,0,0.47902,0,0,0,45,0,0,0,0.6,0.76,0
0.37603,0,0,0,0,0,0,0,0,0,0,0,0,0.47931,0.0014113,0,0.47932,0,0,0,45,0,0,0,0.62,0.76,0
0.35684,0,0,0,0,0,0,0,0,0,0,0,0,0.48005,0.0039152,0,0.48006,0,0,0,45,0,0,0,0.64,0.76,0
0.33762,0,0,0,0,0,0,0,0,0,0,0,0,0.48119,0.0062036,0,0.48123,0,0,0,45,0,0,0,0.66,0.76,0
0.31835,0,0,0,0,0,0,0,0,0,0,0,0,0.48268,0.0082109,0,0.48275,0,0,0,45,0,0,0,0.68,0.76,0
0.29901,0,0,0,0,0,0,0,0,0,0,0,0,0.48446,0.0098866,0,0.48456,0,0,0,45,0,0,0,0.7,0.76,0
0.27959,0,0,0,0,0,0,0,0,0,0,0,0,0.48645,0.011197,0,0.48658,0,0,0,45,0,0,0,0.72,0.76,0
0.26009,0,0,0,0,0,0,0,0,0,0,0,0,0.48858,0.012127,0,0.48874,0,0,0,45,0,0,0,0.74,0.76,0
0.2405,0,0,0,0,0,0,0,0,0,0,0,0,0.49079,0.012677,0,0.49095,0,0,0,45,0,0,0,0.76,0.76,0
0.22083,0,0,0,0,0,0,0,0,0,0,0,0,0.49299,0.01286,0,0.49315,0,0,0,45,0,0,0,0.78,0.76,0
0.20106,0,0,0,0,0,0,0,0,0,0,0,0,0.49513,0.012702,0,0.49529,0,0,0,45,0,0,0,0.8,0.76,0
0.18122,0,0,0,0,0,0,0,0,0,0,0,0,0.49716,0.012235,0,0.49731,0,0,0,45,0,0,0,0.82,0.76,0
0.16129,0,0,0,0,0,0,0,0,0,0,0,0,0.49905,0.011496,0,0.49918,0,0,0,45,0,0,0,0.84,0.76,0
0.14129,0,0,0,0,0,0,0,0,0,0,0,0,0.50075,0.010523,0,0.50086,0,0,0,45,0,0,0,0.86,0.76,0
0.12123,0,0,0,0,0,0,0,0,0,0,0,0,0.50226,0.0093522,0,0.50235,0,0,0,45,0,0,0,0.88,0.76,0
0.10111,0,0,0,0,0,0,0,0,0,0,0,0,0.50355,0.0080205,0,0.50362,0,0,0,45,0,0,0,0.9,0.76,0
0.080948,0,0,0,0,0,0,0,0,0,0,0,0,0.50462,0.0065606,0,0.50466,0,0,0,45,0,0,0,0.92,0.76,0
0.060744,0,0,0,0,0,0,0,0,0,0,0,0,0.50545,0.0050023,0,0.50547,0,0,0,45,0,0,0,0.94,0.76,0
0.040512,0,0,0,0,0,0,0,0,0,0,0,0,0.50604,0.003373,0,0.50605,0,0,0,45,0,0,0,0.96,0.76,0
0.020261,0,0,0,0,0,0,0,0,0,0,0,0,0.5064,0.0016978,0,0.5064,0,0,0,45,0,0,0,0.98,0.76,0
0,0,0,0,0,0,0,0,0,0,0,0,0,0.50652,4.12e-18,0,0.50652,0,0,0,45,0,0,0,1,0.76,0
1,0,0,0,0,0,0,0,0,0,0,0,0,0.51983,-3.2792e-16,0,0.51983,0,0,0,45,0,0,0,0,0.78,0
0.97921,0,0,0,0,0,0,0,0,0,0,0,0,0.51979,-0.001054,0,0.51979,0,0,0,45,0,0,0,0.02,0.78,0
0.95842,0,0,0,0,0,0,0,0,0,0,0,0,0.51964,-0.0021096,0,0.51964,0,0,0,45,0,0,0,0.04,0.78,0
0.93763,0,0,0,0,0,0,0,0,0,0,0,0,0.5194,-0.0031681,0,0.51941,0,0,0,45,0,0,0,0.06,0.78,0
0.91687,0,0,0,0,0,0,0,0,0,0,0,0,0.51905,-0.0042306,0,0.51907,0,0,0,45,0,0,0,0.08,0.78,0
0.89611,0,0,0,0,0,0,0,0,0,0,0,0,0.5186,-0.0052972,0,0.51863,0,0,0,45,0,0,0,0.1,0.78,0
0.87538,0,0,0,0,0,0,0,0,0,0,0,0,0.51804,-0.0063672,0,0.51808,0,0,0,45,0,0,0,0.12,0.78,0
0.85467,0,0,0,0,0,0,0,0,0,0,0,0,0.51737,-0.0074385,0,0.51742,0,0,0,45,0,0,0,0.14,0.78,0
0.83399,0,0,0,0,0,0,0,0,0,0,0,0,0.51658,-0.0085077,0,0.51665,0,0,0,45,0,0,0,0.16,0.78,0
0.81334,0,0,0,0,0,0,0,0,0,0,0,0,0.51566,-0.0095693,0,0.51575,0,0,0,45,0,0,0,0.18,0.78,0
0.79273,0,0,0,0,0,0,0,0,0,0,0,0,0.51461,-0.010616,0,0.51472,0,0,0,45,0,0,0,0.2,0.78,0
0.77217,0,0,0,0,0,0,0,0,0,0,0,0,0.51343,-0.011636,0,0.51356,0,0,0,45,0,0,0,0.22,0.78,0
0.75166,0,0,0,0,0,0,0,0,0,0,0,0,0.5121,-0.012619,0,0.51226,0,0,0,45,0,0,0,0.24,0.78,0
0.7312,0,0,0,0,0,0,0,0,0,0,0,0,0.51063,-0.013546,0,0.51081,0,0,0,45,0,0,0,0.26,0.78,0
0.71081,0,0,0,0,0,0,0,0,0,0,0,0,0.50901,-0.0144,0,0.50922,0,0,0,45,0,0,0,0.28,0.78,0
0.69048,0,0,0,0,0,0,0,0,0,0,0,0,0.50725,-0.015157,0,0.50748,0,0,0,45,0,0,0,0.3,0.78,0
0.67023,0,0,0,0,0,0,0,0,0,0,0,0,0.50535,-0.015791,0,0.5056,0,0,0,45,0,0,0,0.32,0.78,0
0.65006,0,0,0,0,0,0,0,0,0,0,0,0,0.50332,-0.016276,0,0.50359,0,0,0,45,0,0,0,0.34,0.78,0
0.62996,0,0,0,0,0,0,0,0,0,0,0,0,0.50118,-0.01658,0,0.50146,0,0,0,45,0,0,0,0.36,0.78,0
0.60996,0,0,0,0,0,0,0,0,0,0,0,0,0.49895,-0.016675,0,0.49923,0,0,0,45,0,0,0,0.38,0.78,0
0.59005,0,0,0,0,0,0,0,0,0,0,0,0,0.49667,-0.016533,0,0.49695,0,0,0,45,0,0,0,0.4,0.78,0
0.57023,0,0,0,0,0,0,0,0,0,0,0,0,0.49437,-0.016128,0,0.49464,0,0,0,45,0,0,0,0.42,0.78,0
0.5505,0,0,0,0,0,0,0,0,0,0,0,0,0.49211,-0.015444,0,0.49235,0,0,0,45,0,0,0,0.44,0.78,0
0.53086,0,0,0,0,0,0,0,0,0,0,0,0,0.48992,-0.01447,0,0.49014,0,0,0,45,0,0,0,0.46,0.78,0
0.51131,0,0,0,0,0,0,0,0,0,0,0,0,0.48788,-0.013208,0,0.48806,0,0,0,45,0,0,0,0.48,0.78,0
0.49183,0,0,0,0,0,0,0,0,0,0,0,0,0.48603,-0.011673,0,0.48617,0,0,0,45,0,0,0,0.5,0.78,0
0.47242,0,0,0,0,0,0,0,0,0,0,0,0,0.48444,-0.0098912,0,0.48454,0,0,0,45,0,0,0,0.52,0.78,0
0.45307,0,0,0,0,0,0,0,0,0,0,0,0,0.48315,-0.007904,0,0.48322,0,0,0,45,0,0,0,0.54,0.78,0
0.43377,0,0,0,0,0,0,0,0,0,0,0,0,0.48221,-0.0057632,0,0.48224,0,0,0,45,0,0,0,0.56,0.78,0
0.4145,0,0,0,0,0,0,0,0,0,0,0,0,0.48164,-0.0035298,0,0.48165,0,0,0,45,0,0,0,0.58,0.78,0
0.39524,0,0,0,0,0,0,0,0,0,0,0,0,0.48146,-0.001271,0,0.48146,0,0,0,45,0,0,0,0.6,0.78,0
0.37598,0,0,0,0,0,0,0,0,0,0,0,0,0.48166,0.00094418,0,0.48166,0,0,0,45,0,0,0,0.62,0.78,0
0.3567,0,0,0,0,0,0,0,0,0,0,0,0,0.48224,0.0030483,0,0.48225,0,0,0,45,0,0,0,0.64,0.78,0
0.3374,0,0,0,0,0,0,0,0,0,0,0,0,0.48316,0.0049795,0,0.48318,0,0,0,45,0,0,0,0.66,0.78,0
0.31805,0,0,0,0,0,0,0,0,0,0,0,0,0.48438,0.0066848,0,0.48442,0,0,0,45,0,0,0,0.68,0.78,0
0.29865,0,0,0,0,0,0,0,0,0,0,0,0,0.48584,0.0081226,0,0.48591,0,0,0,45,0,0,0,0.7,0.78,0
0.27919,0,0,0,0,0,0,0,0,0,0,0,0,0.4875,0.009264,0,0.48759,0,0,0,45,0,0,0,0.72,0.78,0
0.25965,0,0,0,0,0,0,0,0,0,0,0,0,0.48929,0.010093,0,0.4894,0,0,0,45,0,0,0,0.74,0.78,0
0.24004,0,0,0,0,0,0,0,0,0,0,0,0,0.49115,0.010608,0,0.49127,0,0,0,45,0,0,0,0.76,0.78,0
0.22036,0,0,0,0,0,0,0,0,0,0,0,0,0.49303,0.010815,0,0.49315,0,0,0,45,0,0,0,0.78,0.78,0
0.2006,0,0,0,0,0,0,0,0,0,0,0,0,0.49487,0.010732,0,0.49499,0,0,0,45,0,0,0,0.8,0.78,0
0.18077,0,0,0,0,0,0,0,0,0,0,0,0,0.49663,0.010383,0,0.49674,0,0,0,45,0,0,0,0.82,0.78,0
0.16087,0,0,0,0,0,0,0,0,0,0,0,0,0.49828,0.0097952,0,0.49838,0,0,0,45,0,0,0,0.84,0.78,0
0.14091,0,0,0,0,0,0,0,0,0,0,0,0,0.49978,0.0089985,0,0.49986,0,0,0,45,0,0,0,0.86,0.78,0
0.12089,0,0,0,0,0,0,0,0,0,0,0,0,0.50112,0.0080235,0,0.50118,0,0,0,45,0,0,0,0.88,0.78,0
0.10082,0,0,0,0,0,0,0,0,0,0,0,0,0.50227,0.0069003,0,0.50232,0,0,0,45,0,0,0,0.9,0.78,0
0.080704,0,0,0,0,0,0,0,0,0,0,0,0,0.50322,0.0056573,0,0.50326,0,0,0,45,0,0,0,0.92,0.78,0
0.060559,0,0,0,0,0,0,0,0,0,0,0,0,0.50397,0.0043215,0,0.50399,0,0,0,45,0,0,0,0.94,0.78,0
0.040387,0,0,0,0,0,0,0,0,0,0,0,0,0.50451,0.0029178,0,0.50452,0,0,0,45,0,0,0,0.96,0.78,0
0.020198,0,0,0,0,0,0,0,0,0,0,0,0,0.50484,0.0014698,0,0.50484,0,0,0,45,0,0,0,0.98,0.78,0
0,0,0,0,0,0,0,0,0,0,0,0,0,0.50494,2.8189e-18,0,0.50494,0,0,0,45,0,0,0,1,0.78,0
1,0,0,0,0,0,0,0,0,0,0,0,0,0.51883,-6.1051e-16,0,0.51883,0,0,0,45,0,0,0,0,0.8,0
0.97925,0,0,0,0,0,0,0,0,0,0,0,0,0.51878,-0.00095688,0,0.51878,0,0,0,45,0,0,0,0.02,0.8,0
0.9585,0,0,0,0,0,0,0,0,0,0,0,0,0.51863,-0.0019145,0,0.51863,0,0,0,45,0,0,0,0.04,0.8,0
0.93776,0,0,0,0,0,0,0,0,0,0,0,0,0.51838,-0.0028734,0,0.51839,0,0,0,45,0,0,0,0.06,0.8,0
0.91703,0,0,0,0,0,0,0,0,0,0,0,0,0.51804,-0.0038336,0,0.51805,0,0,0,45,0,0,0,0.08,0.8,0
0.89631,0,0,0,0,0,0,0,0,0,0,0,0,0.51758,-0.0047946,0,0.51761,0,0,0,45,0,0,0,0.1,0.8,0
0.87562,0,0,0,0,0,0,0,0,0,0,0,0,0.51703,-0.005755,0,0.51706,0,0,0,45,0,0,0,0.12,0.8,0
0.85495,0,0,0,0,0,0,0,0,0,0,0,0,0.51636,-0.0067122,0,0.5164,0,0,0,45,0,0,0,0.14,0.8,0
0.83431,0,0,0,0,0,0,0,0,0,0,0,0,0.51557,-0.0076622,0,0.51563,0,0,0,45,0,0,0,0.16,0.8,0
0.81371,0,0,0,0,0,0,0,0,0,0,0,0,0.51467,-0.0085996,0,0.51474,0,0,0,45,0,0,0,0.18,0.8,0
0.79314,0,0,0,0,0,0,0,0,0,0,0,0,0.51365,-0.0095167,0,0.51374,0,0,0,45,0,0,0,0.2,0.8,0
0.77261,0,0,0,0,0,0,0,0,0,0,0,0,0.5125,-0.010404,0,0.5126,0,0,0,45,0,0,0,0.22,0.8,0
0.75214,0,0,0,0,0,0,0,0,0,0,0,0,0.51122,-0.01125,0,0.51135,0,0,0,45,0,0,0,0.24,0.8,0
0.73172,0,0,0,0,0,0,0,0,0,0,0,0,0.50982,-0.012039,0,0.50996,0,0,0,45,0,0,0,0.26,0.8,0
0.71135,0,0,0,0,0,0,0,0,0,0,0,0,0.50828,-0.012755,0,0.50844,0,0,0,45,0,0,0,0.28,0.8,0
0.69105,0,0,0,0,0,0,0,0,0,0,0,0,0.50663,-0.01338,0,0.5068,0,0,0,45,0,0,0,0.3,0.8,0
0.67082,0,0,0,0,0,0,0,0,0,0,0,0,0.50486,-0.01389,0,0.50505,0,0,0,45,0,0,0,0.32,0.8,0
0.65067,0,0,0,0,0,0,0,0,0,0,0,0,0.50298,-0.014264,0,0.50319,0,0,0,45,0,0,0,0.34,0.8,0
0.63058,0,0,0,0,0,0,0,0,0,0,0,0,0.50103,-0.014478,0,0.50124,0,0,0,45,0,0,0,0.36,0.8,0
0.61058,0,0,0,0,0,0,0,0,0,0,0,0,0.49901,-0.01451,0,0.49922,0,0,0,45,0,0,0,0.38,0.8,0
0.59066,0,0,0,0,0,0,0,0,0,0,0,0,0.49695,-0.014338,0,0.49716,0,0,0,45,0,0,0,0.4,0.8,0
0.57083,0,0,0,0,0,0,0,0,0,0,0,0,0.4949,-0.013944,0,0.4951,0,0,0,45,0,0,0,0.42,0.8,0
0.55107,0,0,0,0,0,0,0,0,0,0,0,0,0.49289,-0.013318,0,0.49307,0,0,0,45,0,0,0,0.44,0.8,0
0.53139,0,0,0,0,0,0,0,0,0,0,0,0,0.49097,-0.012453,0,0.49113,0,0,0,45,0,0,0,0.46,0.8,0
0.51179,0,0,0,0,0,0,0,0,0,0,0,0,0.48918,-0.011354,0,0.48931,0,0,0,45,0,0,0,0.48,0.8,0
0.49226,0,0,0,0,0,0,0,0,0,0,0,0,0.48756,-0.010034,0,0.48767,0,0,0,45,0,0,0,0.5,0.8,0
0.47279,0,0,0,0,0,0,0,0,0,0,0,0,0.48617,-0.008517,0,0.48625,0,0,0,45,0,0,0,0.52,0.8,0
0.45337,0,0,0,0,0,0,0,0,0,0,0,0,0.48504,-0.0068364,0,0.48509,0,0,0,45,0,0,0,0.54,0.8,0
0.43399,0,0,0,0,0,0,0,0,0,0,0,0,0.48421,-0.0050345,0,0.48424,0,0,0,45,0,0,0,0.56,0.8,0
0.41463,0,0,0,0,0,0,0,0,0,0,0,0,0.48369,-0.0031602,0,0.4837,0,0,0,45,0,0,0,0.58,0.8,0
0.39529,0,0,0,0,0,0,0,0,0,0,0,0,0.4835,-0.001267,0,0.4835,0,0,0,45,0,0,0,0.6,0.8,0
0.37595,0,0,0,0,0,0,0,0,0,0,0,0,0.48363,0.00059005,0,0.48363,0,0,0,45,0,0,0,0.62,0.8,0
0.3566,0,0,0,0,0,0,0,0,0,0,0,0,0.48408,0.0023573,0,0.48409,0,0,0,45,0,0,0,0.64,0.8,0
0.33722,0,0,0,0,0,0,0,0,0,0,0,0,0.48483,0.0039851,0,0.48484,0,0,0,45,0,0,0,0.66,0.8,0
0.31781,0,0,0,0,0,0,0,0,0,0,0,0,0.48582,0.0054307,0,0.48585,0,0,0,45,0,0,0,0.68,0.8,0
0.29836,0,0,0,0,0,0,0,0,0,0,0,0,0.48704,0.0066596,0,0.48708,0,0,0,45,0,0,0,0.7,0.8,0
0.27885,0,0,0,0,0,0,0,0,0,0,0,0,0.48842,0.007647,0,0.48848,0,0,0,45,0,0,0,0.72,0.8,0
0.25928,0,0,0,0,0,0,0,0,0,0,0,0,0.48993,0.0083784,0,0.49,0,0,0,45,0,0,0,0.74,0.8,0
0.23966,0,0,0,0,0,0,0,0,0,0,0,0,0.49151,0.008849,0,0.49159,0,0,0,45,0,0,0,0.76,0.8,0
0.21996,0,0,0,0,0,0,0,0,0,0,0,0,0.49311,0.0090627,0,0.49319,0,0,0,45,0,0,0,0.78,0.8,0
0.20021,0,0,0,0,0,0,0,0,0,0,0,0,0.49469,0.0090309,0,0.49478,0,0,0,45,0,0,0,0.8,0.8,0
0.18039,0,0,0,0,0,0,0,0,0,0,0,0,0.49622,0.0087708,0,0.4963,0,0,0,45,0,0,0,0.82,0.8,0
0.16051,0,0,0,0,0,0,0,0,0,0,0,0,0.49766,0.0083034,0,0.49773,0,0,0,45,0,0,0,0.84,0.8,0
0.14058,0,0,0,0,0,0,0,0,0,0,0,0,0.49898,0.0076524,0,0.49904,0,0,0,45,0,0,0,0.86,0.8,0
0.12059,0,0,0,0,0,0,0,0,0,0,0,0,0.50016,0.0068427,0,0.50021,0,0,0,45,0,0,0,0.88,0.8,0
0.10056,0,0,0,0,0,0,0,0,0,0,0,0,0.50118,0.0058992,0,0.50122,0,0,0,45,0,0,0,0.9,0.8,0
0.080495,0,0,0,0,0,0,0,0,0,0,0,0,0.50204,0.0048464,0,0.50206,0,0,0,45,0,0,0,0.92,0.8,0
0.060399,0,0,0,0,0,0,0,0,0,0,0,0,0.50271,0.003708,0,0.50272,0,0,0,45,0,0,0,0.94,0.8,0
0.040279,0,0,0,0,0,0,0,0,0,0,0,0,0.50319,0.0025064,0,0.5032,0,0,0,45,0,0,0,0.96,0.8,0
0.020143,0,0,0,0,0,0,0,0,0,0,0,0,0.50348,0.0012635,0,0.50348,0,0,0,45,0,0,0,0.98,0.8,0
0,0,0,0,0,0,0,0,0,0,0,0,0,0.50358,-1.0842e-19,0,0.50358,0,0,0,45,0,0,0,1,0.8,0
1,0,0,0,0,0,0,0,0,0,0,0,0,0.51792,-7.59e-16,0,0.51792,0,0,0,45,0,0,0,0,0.82,0
0.97928,0,0,0,0,0,0,0,0,0,0,0,0,0.51787,-0.00085899,0,0.51787,0,0,0,45,0,0,0,0.02,0.82,0
0.95857,0,0,0,0,0,0,0,0,0,0,0,0,0.51772,-0.001718,0,0.51773,0,0,0,45,0,0,0,0.04,0.82,0
0.93786,0,0,0,0,0,0,0,0,0,0,0,0,0.51748,-0.002577,0,0.51748,0,0,0,45,0,0,0,0.06,0.82,0
0.91717,0,0,0,0,0,0,0,0,0,0,0,0,0.51713,-0.0034355,0,0.51714,0,0,0,45,0,0,0,0.08,0.82,0
0.8965,0,0,0,0,0,0,0,0,0,0,0,0,0.51668,-0.0042923,0,0.5167,0,0,0,45,0,0,0,0.1,0.82,0
0.87584,0,0,0,0,0,0,0,0,0,0,0,0,0.51612,-0.0051455,0,0.51615,0,0,0,45,0,0,0,0.12,0.82,0
0.8552,0,0,0,0,0,0,0,0,0,0,0,0,0.51546,-0.0059924,0,0.5155,0,0,0,45,0,0,0,0.14,0.82,0
0.8346,0,0,0,0,0,0,0,0,0,0,0,0,0.51469,-0.0068288,0,0.51473,0,0,0,45,0,0,0,0.16,0.82,0
0.81403,0,0,0,0,0,0,0,0,0,0,0,0,0.51381,-0.0076493,0,0.51386,0,0,0,45,0,0,0,0.18,0.82,0
0.7935,0,0,0,0,0,0,0,0,0,0,0,0,0.51281,-0.0084469,0,0.51288,0,0,0,45,0,0,0,0.2,0.82,0
0.77301,0,0,0,0,0,0,0,0,0,0,0,0,0.5117,-0.0092126,0,0.51178,0,0,0,45,0,0,0,0.22,0.82,0
0.75256,0,0,0,0,0,0,0,0,0,0,0,0,0.51047,-0.0099358,0,0.51057,0,0,0,45,0,0,0,0.24,0.82,0
0.73217,0,0,0,0,0,0,0,0,0,0,0,0,0.50913,-0.010604,0,0.50924,0,0,0,45,0,0,0,0.26,0.82,0
0.71183,0,0,0,0,0,0,0,0,0,0,0,0,0.50767,-0.011203,0,0.5078,0,0,0,45,0,0,0,0.28,0.82,0
0.69155,0,0,0,0,0,0,0,0,0,0,0,0,0.50612,-0.011715,0,0.50625,0,0,0,45,0,0,0,0.3,0.82,0
0.67134,0,0,0,0,0,0,0,0,0,0,0,0,0.50447,-0.012125,0,0.50461,0,0,0,45,0,0,0,0.32,0.82,0
0.6512,0,0,0,0,0,0,0,0,0,0,0,0,0.50273,-0.012412,0,0.50289,0,0,0,45,0,0,0,0.34,0.82,0
0.63112,0,0,0,0,0,0,0,0,0,0,0,0,0.50094,-0.01256,0,0.50109,0,0,0,45,0,0,0,0.36,0.82,0
0.61112,0,0,0,0,0,0,0,0,0,0,0,0,0.4991,-0.01255,0,0.49925,0,0,0,45,0,0,0,0.38,0.82,0
0.5912,0,0,0,0,0,0,0,0,0,0,0,0,0.49724,-0.012366,0,0.49739,0,0,0,45,0,0,0,0.4,0.82,0
0.57134,0,0,0,0,0,0,0,0,0,0,0,0,0.49539,-0.011996,0,0.49554,0,0,0,45,0,0,0,0.42,0.82,0
0.55156,0,0,0,0,0,0,0,0,0,0,0,0,0.4936,-0.011433,0,0.49373,0,0,0,45,0,0,0,0.44,0.82,0
0.53185,0,0,0,0,0,0,0,0,0,0,0,0,0.49189,-0.010674,0,0.492,0,0,0,45,0,0,0,0.46,0.82,0
0.51221,0,0,0,0,0,0,0,0,0,0,0,0,0.4903,-0.0097239,0,0.4904,0,0,0,45,0,0,0,0.48,0.82,0
0.49263,0,0,0,0,0,0,0,0,0,0,0,0,0.48887,-0.0085956,0,0.48895,0,0,0,45,0,0,0,0.5,0.82,0
0.4731,0,0,0,0,0,0,0,0,0,0,0,0,0.48764,-0.0073092,0,0.48769,0,0,0,45,0,0,0,0.52,0.82,0
0.45362,0,0,0,0,0,0,0,0,0,0,0,0,0.48664,-0.0058924,0,0.48667,0,0,0,45,0,0,0,0.54,0.82,0
0.43417,0,0,0,0,0,0,0,0,0,0,0,0,0.48589,-0.0043796,0,0.48591,0,0,0,45,0,0,0,0.56,0.82,0
0.41475,0,0,0,0,0,0,0,0,0,0,0,0,0.48541,-0.00281,0,0.48542,0,0,0,45,0,0,0,0.58,0.82,0
0.39534,0,0,0,0,0,0,0,0,0,0,0,0,0.48521,-0.0012264,0,0.48521,0,0,0,45,0,0,0,0.6,0.82,0
0.37593,0,0,0,0,0,0,0,0,0,0,0,0,0.48529,0.00032716,0,0.48529,0,0,0,45,0,0,0,0.62,0.82,0
0.35652,0,0,0,0,0,0,0,0,0,0,0,0,0.48563,0.0018079,0,0.48564,0,0,0,45,0,0,0,0.64,0.82,0
0.33708,0,0,0,0,0,0,0,0,0,0,0,0,0.48623,0.003176,0,0.48624,0,0,0,45,0,0,0,0.66,0.82,0
0.31762,0,0,0,0,0,0,0,0,0,0,0,0,0.48705,0.0043966,0,0.48707,0,0,0,45,0,0,0,0.68,0.82,0
0.29812,0,0,0,0,0,0,0,0,0,0,0,0,0.48806,0.0054414,0,0.48809,0,0,0,45,0,0,0,0.7,0.82,0
0.27857,0,0,0,0,0,0,0,0,0,0,0,0,0.48922,0.0062893,0,0.48926,0,0,0,45,0,0,0,0.72,0.82,0
0.25898,0,0,0,0,0,0,0,0,0,0,0,0,0.49049,0.0069273,0,0.49054,0,0,0,45,0,0,0,0.74,0.82,0
0.23933,0,0,0,0,0,0,0,0,0,0,0,0,0.49184,0.0073495,0,0.49189,0,0,0,45,0,0,0,0.76,0.82,0
0.21963,0,0,0,0,0,0,0,0,0,0,0,0,0.49321,0.0075577,0,0.49327,0,0,0,45,0,0,0,0.78,0.82,0
0.19988,0,0,0,0,0,0,0,0,0,0,0,0,0.49458,0.0075592,0,0.49464,0,0,0,45,0,0,0,0.8,0.82,0
0.18007,0,0,0,0,0,0,0,0,0,0,0,0,0.4959,0.0073664,0,0.49596,0,0,0,45,0,0,0,0.82,0.82,0
0.1602,0,0,0,0,0,0,0,0,0,0,0,0,0.49716,0.0069956,0,0.49721,0,0,0,45,0,0,0,0.84,0.82,0
0.14029,0,0,0,0,0,0,0,0,0,0,0,0,0.49832,0.0064652,0,0.49836,0,0,0,45,0,0,0,0.86,0.82,0
0.12034,0,0,0,0,0,0,0,0,0,0,0,0,0.49937,0.0057954,0,0.4994,0,0,0,45,0,0,0,0.88,0.82,0
0.10034,0,0,0,0,0,0,0,0,0,0,0,0,0.50027,0.005007,0,0.5003,0,0,0,45,0,0,0,0.9,0.82,0
0.080317,0,0,0,0,0,0,0,0,0,0,0,0,0.50103,0.0041208,0,0.50105,0,0,0,45,0,0,0,0.92,0.82,0
0.060262,0,0,0,0,0,0,0,0,0,0,0,0,0.50163,0.0031572,0,0.50164,0,0,0,45,0,0,0,0.94,0.82,0
0.040186,0,0,0,0,0,0,0,0,0,0,0,0,0.50207,0.0021363,0,0.50207,0,0,0,45,0,0,0,0.96,0.82,0
0.020097,0,0,0,0,0,0,0,0,0,0,0,0,0.50233,0.0010776,0,0.50233,0,0,0,45,0,0,0,0.98,0.82,0
0,0,0,0,0,0,0,0,0,0,0,0,0,0.50242,1.7347e-18,0,0.50242,0,0,0,45,0,0,0,1,0.82,0
1,0,0,0,0,0,0,0,0,0,0,0,0,0.51711,5.3389e-16,0,0.51711,0,0,0,45,0,0,0,0,0.84,0
0.97932,0,0,0,0,0,0,0,0,0,0,0,0,0.51706,-0.00076096,0,0.51706,0,0,0,45,0,0,0,0.02,0.84,0
0.95864,0,0,0,0,0,0,0,0,0,0,0,0,0.51691,-0.0015215,0,0.51692,0,0,0,45,0,0,0,0.04,0.84,0
0.93796,0,0,0,0,0,0,0,0,0,0,0,0,0.51667,-0.0022811,0,0.51667,0,0,0,45,0,0,0,0.06,0.84,0
0.9173,0,0,0,0,0,0,0,0,0,0,0,0,0.51632,-0.0030388,0,0.51633,0,0,0,45,0,0,0,0.08,0.84,0
0.89666,0,0,0,0,0,0,0,0,0,0,0,0,0.51587,-0.0037931,0,0.51589,0,0,0,45,0,0,0,0.1,0.84,0
0.87603,0,0,0,0,0,0,0,0,0,0,0,0,0.51533,-0.0045421,0,0.51535,0,0,0,45,0,0,0,0.12,0.84,0
0.85543,0,0,0,0,0,0,0,0,0,0,0,0,0.51467,-0.0052826,0,0.5147,0,0,0,45,0,0,0,0.14,0.84,0
0.83486,0,0,0,0,0,0,0,0,0,0,0,0,0.51392,-0.0060108,0,0.51395,0,0,0,45,0,0,0,0.16,0.84,0
0.81432,0,0,0,0,0,0,0,0,0,0,0,0,0.51305,-0.0067215,0,0.5131,0,0,0,45,0,0,0,0.18,0.84,0
0.79381,0,0,0,0,0,0,0,0,0,0,0,0,0.51208,-0.0074082,0,0.51214,0,0,0,45,0,0,0,0.2,0.84,0
0.77335,0,0,0,0,0,0,0,0,0,0,0,0,0.51101,-0.008063,0,0.51107,0,0,0,45,0,0,0,0.22,0.84,0
0.75293,0,0,0,0,0,0,0,0,0,0,0,0,0.50983,-0.0086765,0,0.5099,0,0,0,45,0,0,0,0.24,0.84,0
0.73256,0,0,0,0,0,0,0,0,0,0,0,0,0.50855,-0.0092379,0,0.50863,0,0,0,45,0,0,0,0.26,0.84,0
0.71225,0,0,0,0,0,0,0,0,0,0,0,0,0.50717,-0.0097349,0,0.50726,0,0,0,45,0,0,0,0.28,0.84,0
0.69199,0,0,0,0,0,0,0,0,0,0,0,0,0.5057,-0.010154,0,0.50581,0,0,0,45,0,0,0,0.3,0.84,0
0.67179,0,0,0,0,0,0,0,0,0,0,0,0,0.50416,-0.010481,0,0.50427,0,0,0,45,0,0,0,0.32,0.84,0
0.65166,0,0,0,0,0,0,0,0,0,0,0,0,0.50255,-0.010701,0,0.50266,0,0,0,45,0,0,0,0.34,0.84,0
0.63159,0,0,0,0,0,0,0,0,0,0,0,0,0.50089,-0.0108,0,0.50101,0,0,0,45,0,0,0,0.36,0.84,0
0.61159,0,0,0,0,0,0,0,0,0,0,0,0,0.4992,-0.010764,0,0.49932,0,0,0,45,0,0,0,0.38,0.84,0
0.59165,0,0,0,0,0,0,0,0,0,0,0,0,0.49751,-0.010582,0,0.49762,0,0,0,45,0,0,0,0.4,0.84,0
0.57179,0,0,0,0,0,0,0,0,0,0,0,0,0.49584,-0.010244,0,0.49594,0,0,0,45,0,0,0,0.42,0.84,0
0.55199,0,0,0,0,0,0,0,0,0,0,0,0,0.49422,-0.0097462,0,0.49431,0,0,0,45,0,0,0,0.44,0.84,0
0.53225,0,0,0,0,0,0,0,0,0,0,0,0,0.49268,-0.0090881,0,0.49276,0,0,0,45,0,0,0,0.46,0.84,0
0.51257,0,0,0,0,0,0,0,0,0,0,0,0,0.49126,-0.008275,0,0.49133,0,0,0,45,0,0,0,0.48,0.84,0
0.49295,0,0,0,0,0,0,0,0,0,0,0,0,0.48998,-0.007318,0,0.49003,0,0,0,45,0,0,0,0.5,0.84,0
0.47337,0,0,0,0,0,0,0,0,0,0,0,0,0.48888,-0.0062341,0,0.48892,0,0,0,45,0,0,0,0.52,0.84,0
0.45384,0,0,0,0,0,0,0,0,0,0,0,0,0.48797,-0.0050464,0,0.488,0,0,0,45,0,0,0,0.54,0.84,0
0.43434,0,0,0,0,0,0,0,0,0,0,0,0,0.48729,-0.0037825,0,0.48731,0,0,0,45,0,0,0,0.56,0.84,0
0.41485,0,0,0,0,0,0,0,0,0,0,0,0,0.48684,-0.0024742,0,0.48685,0,0,0,45,0,0,0,0.58,0.84,0
0.39539,0,0,0,0,0,0,0,0,0,0,0,0,0.48664,-0.0011556,0,0.48664,0,0,0,45,0,0,0,0.6,0.84,0
0.37592,0,0,0,0,0,0,0,0,0,0,0,0,0.48667,0.0001382,0,0.48667,0,0,0,45,0,0,0,0.62,0.84,0
0.35645,0,0,0,0,0,0,0,0,0,0,0,0,0.48693,0.0013729,0,0.48694,0,0,0,45,0,0,0,0.64,0.84,0
0.33697,0,0,0,0,0,0,0,0,0,0,0,0,0.48741,0.0025165,0,0.48742,0,0,0,45,0,0,0,0.66,0.84,0
0.31746,0,0,0,0,0,0,0,0,0,0,0,0,0.48809,0.0035409,0,0.4881,0,0,0,45,0,0,0,0.68,0.84,0
0.29792,0,0,0,0,0,0,0,0,0,0,0,0,0.48893,0.0044227,0,0.48895,0,0,0,45,0,0,0,0.7,0.84,0
0.27835,0,0,0,0,0,0,0,0,0,0,0,0,0.48991,0.0051443,0,0.48994,0,0,0,45,0,0,0,0.72,0.84,0
0.25873,0,0,0,0,0,0,0,0,0,0,0,0,0.49099,0.0056941,0,0.49102,0,0,0,45,0,0,0,0.74,0.84,0
0.23907,0,0,0,0,0,0,0,0,0,0,0,0,0.49214,0.0060663,0,0.49217,0,0,0,45,0,0,0,0.76,0.84,0
0.21936,0,0,0,0,0,0,0,0,0,0,0,0,0.49332,0.006261,0,0.49336,0,0,0,45,0,0,0,0.78,0.84,0
0.1996,0,0,0,0,0,0,0,0,0,0,0,0,0.4945,0.0062828,0,0.49454,0,0,0,45,0,0,0,0.8,0.84,0
0.1798,0,0,0,0,0,0,0,0,0,0,0,0,0.49566,0.006141,0,0.4957,0,0,0,45,0,0,0,0.82,0.84,0
0.15995,0,0,0,0,0,0,0,0,0,0,0,0,0.49676,0.0058477,0,0.49679,0,0,0,45,0,0,0,0.84,0.84,0
0.14006,0,0,0,0,0,0,0,0,0,0,0,0,0.49778,0.0054176,0,0.49781,0,0,0,45,0,0,0,0.86,0.84,0
0.12013,0,0,0,0,0,0,0,0,0,0,0,0,0.4987,0.0048668,0,0.49873,0,0,0,45,0,0,0,0.88,0.84,0
0.10016,0,0,0,0,0,0,0,0,0,0,0,0,0.49951,0.0042125,0,0.49953,0,0,0,45,0,0,0,0.9,0.84,0
0.080166,0,0,0,0,0,0,0,0,0,0,0,0,0.50019,0.0034723,0,0.5002,0,0,0,45,0,0,0,0.92,0.84,0
0.060146,0,0,0,0,0,0,0,0,0,0,0,0,0.50072,0.0026636,0,0.50073,0,0,0,45,0,0,0,0.94,0.84,0
0.040108,0,0,0,0,0,0,0,0,0,0,0,0,0.50111,0.0018039,0,0.50111,0,0,0,45,0,0,0,0.96,0.84,0
0.020057,0,0,0,0,0,0,0,0,0,0,0,0,0.50135,0.00091036,0,0.50135,0,0,0,45,0,0,0,0.98,0.84,0
0,0,0,0,0,0,0,0,0,0,0,0,0,0.50143,7.9147e-18,0,0.50143,0,0,0,45,0,0,0,1,0.84,0
1,0,0,0,0,0,0,0,0,0,0,0,0,0.5164,7.1967e-16,0,0.5164,0,0,0,45,0,0,0,0,0.86,0
0.97934,0,0,0,0,0,0,0,0,0,0,0,0,0.51635,-0.00066328,0,0.51635,0,0,0,45,0,0,0,0.02,0.86,0
0.95869,0,0,0,0,0,0,0,0,0,0,0,0,0.5162,-0.0013258,0,0.51621,0,0,0,45,0,0,0,0.04,0.86,0
0.93805,0,0,0,0,0,0,0,0,0,0,0,0,0.51596,-0.0019869,0,0.51596,0,0,0,45,0,0,0,0.06,0.86,0
0.91741,0,0,0,0,0,0,0,0,0,0,0,0,0.51562,-0.0026451,0,0.51562,0,0,0,45,0,0,0,0.08,0.86,0
0.8968,0,0,0,0,0,0,0,0,0,0,0,0,0.51518,-0.0032991,0,0.51519,0,0,0,45,0,0,0,0.1,0.86,0
0.8762,0,0,0,0,0,0,0,0,0,0,0,0,0.51463,-0.0039467,0,0.51465,0,0,0,45,0,0,0,0.12,0.86,0
0.85563,0,0,0,0,0,0,0,0,0,0,0,0,0.51399,-0.0045848,0,0.51401,0,0,0,45,0,0,0,0.14,0.86,0
0.83508,0,0,0,0,0,0,0,0,0,0,0,0,0.51325,-0.0052099,0,0.51328,0,0,0,45,0,0,0,0.16,0.86,0
0.81457,0,0,0,0,0,0,0,0,0,0,0,0,0.51241,-0.0058172,0,0.51244,0,0,0,45,0,0,0,0.18,0.86,0
0.79409,0,0,0,0,0,0,0,0,0,0,0,0,0.51147,-0.0064009,0,0.51151,0,0,0,45,0,0,0,0.2,0.86,0
0.77365,0,0,0,0,0,0,0,0,0,0,0,0,0.51043,-0.0069541,0,0.51048,0,0,0,45,0,0,0,0.22,0.86,0
0.75326,0,0,0,0,0,0,0,0,0,0,0,0,0.50929,-0.0074688,0,0.50935,0,0,0,45,0,0,0,0.24,0.86,0
0.73291,0,0,0,0,0,0,0,0,0,0,0,0,0.50807,-0.0079358,0,0.50813,0,0,0,45,0,0,0,0.26,0.86,0
0.71261,0,0,0,0,0,0,0,0,0,0,0,0,0.50676,-0.0083448,0,0.50683,0,0,0,45,0,0,0,0.28,0.86,0
0.69237,0,0,0,0,0,0,0,0,0,0,0,0,0.50537,-0.0086848,0,0.50545,0,0,0,45,0,0,0,0.3,0.86,0
0.67218,0,0,0,0,0,0,0,0,0,0,0,0,0.50392,-0.0089444,0,0.504,0,0,0,45,0,0,0,0.32,0.86,0
0.65205,0,0,0,0,0,0,0,0,0,0,0,0,0.50241,-0.0091117,0,0.5025,0,0,0,45,0,0,0,0.34,0.86,0
0.63199,0,0,0,0,0,0,0,0,0,0,0,0,0.50087,-0.0091756,0,0.50096,0,0,0,45,0,0,0,0.36,0.86,0
0.61198,0,0,0,0,0,0,0,0,0,0,0,0,0.49931,-0.0091258,0,0.4994,0,0,0,45,0,0,0,0.38,0.86,0
0.59204,0,0,0,0,0,0,0,0,0,0,0,0,0.49776,-0.0089538,0,0.49784,0,0,0,45,0,0,0,0.4,0.86,0
0.57216,0,0,0,0,0,0,0,0,0,0,0,0,0.49623,-0.0086534,0,0.4963,0,0,0,45,0,0,0,0.42,0.86,0
0.55234,0,0,0,0,0,0,0,0,0,0,0,0,0.49475,-0.0082217,0,0.49482,0,0,0,45,0,0,0,0.44,0.86,0
0.53258,0,0,0,0,0,0,0,0,0,0,0,0,0.49336,-0.0076595,0,0.49342,0,0,0,45,0,0,0,0.46,0.86,0
0.51287,0,0,0,0,0,0,0,0,0,0,0,0,0.49207,-0.006972,0,0.49212,0,0,0,45,0,0,0,0.48,0.86,0
0.49322,0,0,0,0,0,0,0,0,0,0,0,0,0.49091,-0.006169,0,0.49095,0,0,0,45,0,0,0,0.5,0.86,0
0.4736,0,0,0,0,0,0,0,0,0,0,0,0,0.48991,-0.0052647,0,0.48994,0,0,0,45,0,0,0,0.52,0.86,0
0.45402,0,0,0,0,0,0,0,0,0,0,0,0,0.48909,-0.0042778,0,0.48911,0,0,0,45,0,0,0,0.54,0.86,0
0.43448,0,0,0,0,0,0,0,0,0,0,0,0,0.48846,-0.0032308,0,0.48847,0,0,0,45,0,0,0,0.56,0.86,0
0.41495,0,0,0,0,0,0,0,0,0,0,0,0,0.48803,-0.002149,0,0.48804,0,0,0,45,0,0,0,0.58,0.86,0
0.39543,0,0,0,0,0,0,0,0,0,0,0,0,0.48782,-0.0010597,0,0.48782,0,0,0,45,0,0,0,0.6,0.86,0
0.37592,0,0,0,0,0,0,0,0,0,0,0,0,0.48782,9.1566e-06,0,0.48781,0,0,0,45,0,0,0,0.62,0.86,0
0.35641,0,0,0,0,0,0,0,0,0,0,0,0,0.48801,0.0010302,0,0.48801,0,0,0,45,0,0,0,0.64,0.86,0
0.33688,0,0,0,0,0,0,0,0,0,0,0,0,0.4884,0.001978,0,0.4884,0,0,0,45,0,0,0,0.66,0.86,0
0.31733,0,0,0,0,0,0,0,0,0,0,0,0,0.48896,0.0028297,0,0.48897,0,0,0,45,0,0,0,0.68,0.86,0
0.29776,0,0,0,0,0,0,0,0,0,0,0,0,0.48966,0.0035663,0,0.48968,0,0,0,45,0,0,0,0.7,0.86,0
0.27816,0,0,0,0,0,0,0,0,0,0,0,0,0.49049,0.0041732,0,0.49051,0,0,0,45,0,0,0,0.72,0.86,0
0.25852,0,0,0,0,0,0,0,0,0,0,0,0,0.49142,0.0046404,0,0.49144,0,0,0,45,0,0,0,0.74,0.86,0
0.23885,0,0,0,0,0,0,0,0,0,0,0,0,0.4924,0.0049624,0,0.49243,0,0,0,45,0,0,0,0.76,0.86,0
0.21913,0,0,0,0,0,0,0,0,0,0,0,0,0.49343,0.0051383,0,0.49345,0,0,0,45,0,0,0,0.78,0.86,0
0.19937,0,0,0,0,0,0,0,0,0,0,0,0,0.49446,0.0051713,0,0.49449,0,0,0,45,0,0,0,0.8,0.86,0
0.17958,0,0,0,0,0,0,0,0,0,0,0,0,0.49547,0.0050678,0,0.4955,0,0,0,45,0,0,0,0.82,0.86,0
0.15974,0,0,0,0,0,0,0,0,0,0,0,0,0.49644,0.0048372,0,0.49646,0,0,0,45,0,0,0,0.84,0.86,0
0.13986,0,0,0,0,0,0,0,0,0,0,0,0,0.49734,0.0044909,0,0.49736,0,0,0,45,0,0,0,0.86,0.86,0
0.11995,0,0,0,0,0,0,0,0,0,0,0,0,0.49816,0.0040418,0,0.49818,0,0,0,45,0,0,0,0.88,0.86,0
0.10001,0,0,0,0,0,0,0,0,0,0,0,0,0.49888,0.0035041,0,0.49889,0,0,0,45,0,0,0,0.9,0.86,0
0.080039,0,0,0,0,0,0,0,0,0,0,0,0,0.49948,0.0028921,0,0.49949,0,0,0,45,0,0,0,0.92,0.86,0
0.060049,0,0,0,0,0,0,0,0,0,0,0,0,0.49996,0.0022209,0,0.49997,0,0,0,45,0,0,0,0.94,0.86,0
0.040042,0,0,0,0,0,0,0,0,0,0,0,0,0.50031,0.0015052,0,0.50031,0,0,0,45,0,0,0,0.96,0.86,0
0.020024,0,0,0,0,0,0,0,0,0,0,0,0,0.50052,0.00075997,0,0.50052,0,0,0,45,0,0,0,0.98,0.86,0
0,0,0,0,0,0,0,0,0,0,0,0,0,0.5006,-2.4395e-18,0,0.5006,0,0,0,45,0,0,0,1,0.86,0
1,0,0,0,0,0,0,0,0,0,0,0,0,0.51578,-4.3973e-16,0,0.51578,0,0,0,45,0,0,0,0,0.88,0
0.97937,0,0,0,0,0,0,0,0,0,0,0,0,0.51574,-0.00056626,0,0.51574,0,0,0,45,0,0,0,0.02,0.88,0
0.95874,0,0,0,0,0,0,0,0,0,0,0,0,0.51559,-0.0011317,0,0.51559,0,0,0,45,0,0,0,0.04,0.88,0
0.93812,0,0,0,0,0,0,0,0,0,0,0,0,0.51535,-0.0016952,0,0.51535,0,0,0,45,0,0,0,0.06,0.88,0
0.91751,0,0,0,0,0,0,0,0,0,0,0,0,0.51501,-0.0022556,0,0.51502,0,0,0,45,0,0,0,0.08,0.88,0
0.89692,0,0,0,0,0,0,0,0,0,0,0,0,0.51457,-0.0028113,0,0.51458,0,0,0,45,0,0,0,0.1,0.88,0
0.87635,0,0,0,0,0,0,0,0,0,0,0,0,0.51404,-0.0033603,0,0.51405,0,0,0,45,0,0,0,0.12,0.88,0
0.8558,0,0,0,0,0,0,0,0,0,0,0,0,0.51341,-0.0038998,0,0.51343,0,0,0,45,0,0,0,0.14,0.88,0
0.83527,0,0,0,0,0,0,0,0,0,0,0,0,0.51268,-0.0044264,0,0.5127,0,0,0,45,0,0,0,0.16,0.88,0
0.81478,0,0,0,0,0,0,0,0,0,0,0,0,0.51186,-0.0049361,0,0.51189,0,0,0,45,0,0,0,0.18,0.88,0
0.79433,0,0,0,0,0,0,0,0,0,0,0,0,0.51095,-0.0054237,0,0.51098,0,0,0,45,0,0,0,0.2,0.88,0
0.77391,0,0,0,0,0,0,0,0,0,0,0,0,0.50994,-0.0058835,0,0.50997,0,0,0,45,0,0,0,0.22,0.88,0
0.75353,0,0,0,0,0,0,0,0,0,0,0,0,0.50885,-0.0063085,0,0.50889,0,0,0,45,0,0,0,0.24,0.88,0
0.7332,0,0,0,0,0,0,0,0,0,0,0,0,0.50767,-0.0066913,0,0.50772,0,0,0,45,0,0,0,0.26,0.88,0
0.71292,0,0,0,0,0,0,0,0,0,0,0,0,0.50642,-0.0070235,0,0.50647,0,0,0,45,0,0,0,0.28,0.88,0
0.69268,0,0,0,0,0,0,0,0,0,0,0,0,0.50511,-0.0072961,0,0.50516,0,0,0,45,0,0,0,0.3,0.88,0
0.67251,0,0,0,0,0,0,0,0,0,0,0,0,0.50373,-0.0074999,0,0.50379,0,0,0,45,0,0,0,0.32,0.88,0
0.65239,0,0,0,0,0,0,0,0,0,0,0,0,0.50232,-0.0076259,0,0.50238,0,0,0,45,0,0,0,0.34,0.88,0
0.63232,0,0,0,0,0,0,0,0,0,0,0,0,0.50087,-0.0076654,0,0.50094,0,0,0,45,0,0,0,0.36,0.88,0
0.61232,0,0,0,0,0,0,0,0,0,0,0,0,0.49942,-0.0076106,0,0.49948,0,0,0,45,0,0,0,0.38,0.88,0
0.59237,0,0,0,0,0,0,0,0,0,0,0,0,0.49798,-0.0074554,0,0.49804,0,0,0,45,0,0,0,0.4,0.88,0
0.57248,0,0,0,0,0,0,0,0,0,0,0,0,0.49657,-0.0071954,0,0.49662,0,0,0,45,0,0,0,0.42,0.88,0
0.55264,0,0,0,0,0,0,0,0,0,0,0,0,0.49521,-0.0068291,0,0.49526,0,0,0,45,0,0,0,0.44,0.88,0
0.53286,0,0,0,0,0,0,0,0,0,0,0,0,0.49393,-0.0063578,0,0.49397,0,0,0,45,0,0,0,0.46,0.88,0
0.51313,0,0,0,0,0,0,0,0,0,0,0,0,0.49275,-0.0057862,0,0.49278,0,0,0,45,0,0,0,0.48,0.88,0
0.49344,0,0,0,0,0,0,0,0,0,0,0,0,0.49169,-0.0051227,0,0.49171,0,0,0,45,0,0,0,0.5,0.88,0
0.47379,0,0,0,0,0,0,0,0,0,0,0,0,0.49077,-0.0043791,0,0.49079,0,0,0,45,0,0,0,0.52,0.88,0
0.45418,0,0,0,0,0,0,0,0,0,0,0,0,0.49001,-0.0035703,0,0.49002,0,0,0,45,0,0,0,0.54,0.88,0
0.43459,0,0,0,0,0,0,0,0,0,0,0,0,0.48942,-0.0027144,0,0.48943,0,0,0,45,0,0,0,0.56,0.88,0
0.41503,0,0,0,0,0,0,0,0,0,0,0,0,0.48901,-0.0018315,0,0.48902,0,0,0,45,0,0,0,0.58,0.88,0
0.39547,0,0,0,0,0,0,0,0,0,0,0,0,0.48879,-0.0009432,0,0.48879,0,0,0,45,0,0,0,0.6,0.88,0
0.37592,0,0,0,0,0,0,0,0,0,0,0,0,0.48876,-7.1512e-05,0,0.48876,0,0,0,45,0,0,0,0.62,0.88,0
0.35637,0,0,0,0,0,0,0,0,0,0,0,0,0.4889,0.00076192,0,0.4889,0,0,0,45,0,0,0,0.64,0.88,0
0.33681,0,0,0,0,0,0,0,0,0,0,0,0,0.48921,0.0015368,0,0.48922,0,0,0,45,0,0,0,0.66,0.88,0
0.31723,0,0,0,0,0,0,0,0,0,0,0,0,0.48968,0.002235,0,0.48968,0,0,0,45,0,0,0,0.68,0.88,0
0.29764,0,0,0,0,0,0,0,0,0,0,0,0,0.49027,0.0028412,0,0.49028,0,0,0,45,0,0,0,0.7,0.88,0
0.27801,0,0,0,0,0,0,0,0,0,0,0,0,0.49098,0.0033435,0,0.49099,0,0,0,45,0,0,0,0.72,0.88,0
0.25836,0,0,0,0,0,0,0,0,0,0,0,0,0.49178,0.0037333,0,0.49179,0,0,0,45,0,0,0,0.74,0.88,0
0.23867,0,0,0,0,0,0,0,0,0,0,0,0,0.49263,0.0040059,0,0.49265,0,0,0,45,0,0,0,0.76,0.88,0
0.21895,0,0,0,0,0,0,0,0,0,0,0,0,0.49353,0.0041598,0,0.49355,0,0,0,45,0,0,0,0.78,0.88,0
0.19919,0,0,0,0,0,0,0,0,0,0,0,0,0.49443,0.0041972,0,0.49445,0,0,0,45,0,0,0,0.8,0.88,0
0.17939,0,0,0,0,0,0,0,0,0,0,0,0,0.49533,0.0041225,0,0.49534,0,0,0,45,0,0,0,0.82,0.88,0
0.15956,0,0,0,0,0,0,0,0,0,0,0,0,0.49618,0.0039429,0,0.4962,0,0,0,45,0,0,0,0.84,0.88,0
0.1397,0,0,0,0,0,0,0,0,0,0,0,0,0.49699,0.0036672,0,0.497,0,0,0,45,0,0,0,0.86,0.88,0
0.1198,0,0,0,0,0,0,0,0,0,0,0,0,0.49772,0.0033058,0,0.49773,0,0,0,45,0,0,0,0.88,0.88,0
0.099881,0,0,0,0,0,0,0,0,0,0,0,0,0.49836,0.0028698,0,0.49837,0,0,0,45,0,0,0,0.9,0.88,0
0.079934,0,0,0,0,0,0,0,0,0,0,0,0,0.4989,0.0023713,0,0.49891,0,0,0,45,0,0,0,0.92,0.88,0
0.059968,0,0,0,0,0,0,0,0,0,0,0,0,0.49934,0.0018226,0,0.49934,0,0,0,45,0,0,0,0.94,0.88,0
0.039987,0,0,0,0,0,0,0,0,0,0,0,0,0.49965,0.001236,0,0.49965,0,0,0,45,0,0,0,0.96,0.88,0
0.019996,0,0,0,0,0,0,0,0,0,0,0,0,0.49984,0.00062431,0,0.49984,0,0,0,45,0,0,0,0.98,0.88,0
0,0,0,0,0,0,0,0,0,0,0,0,0,0.49991,5.6921e-19,0,0.49991,0,0,0,45,0,0,0,1,0.88,0
1,0,0,0,0,0,0,0,0,0,0,0,0,0.51527,5.6197e-16,0,0.51527,0,0,0,45,0,0,0,0,0.9,0
0.97939,0,0,0,0,0,0,0,0,0,0,0,0,0.51522,-0.00047007,0,0.51522,0,0,0,45,0,0,0,0.02,0.9,0
0.95878,0,0,0,0,0,0,0,0,0,0,0,0,0.51507,-0.00093923,0,0.51507,0,0,0,45,0,0,0,0.04,0.9,0
0.93818,0,0,0,0,0,0,0,0,0,0,0,0,0.51484,-0.0014065,0,0.51484,0,0,0,45,0,0,0,0.06,0.9,0
0.9176,0,0,0,0,0,0,0,0,0,0,0,0,0.5145,-0.0018706,0,0.5145,0,0,0,45,0,0,0,0.08,0.9,0
0.89702,0,0,0,0,0,0,0,0,0,0,0,0,0.51407,-0.0023301,0,0.51407,0,0,0,45,0,0,0,0.1,0.9,0
0.87647,0,0,0,0,0,0,0,0,0,0,0,0,0.51355,-0.0027832,0,0.51355,0,0,0,45,0,0,0,0.12,0.9,0
0.85594,0,0,0,0,0,0,0,0,0,0,0,0,0.51293,-0.0032273,0,0.51294,0,0,0,45,0,0,0,0.14,0.9,0
0.83544,0,0,0,0,0,0,0,0,0,0,0,0,0.51221,-0.0036596,0,0.51223,0,0,0,45,0,0,0,0.16,0.9,0
0.81496,0,0,0,0,0,0,0,0,0,0,0,0,0.51141,-0.0040767,0,0.51143,0,0,0,45,0,0,0,0.18,0.9,0
0.79452,0,0,0,0,0,0,0,0,0,0,0,0,0.51052,-0.0044741,0,0.51054,0,0,0,45,0,0,0,0.2,0.9,0
0.77412,0,0,0,0,0,0,0,0,0,0,0,0,0.50954,-0.0048472,0,0.50957,0,0,0,45,0,0,0,0.22,0.9,0
0.75376,0,0,0,0,0,0,0,0,0,0,0,0,0.50848,-0.0051903,0,0.50851,0,0,0,45,0,0,0,0.24,0.9,0
0.73344,0,0,0,0,0,0,0,0,0,0,0,0,0.50735,-0.0054973,0,0.50738,0,0,0,45,0,0,0,0.26,0.9,0
0.71317,0,0,0,0,0,0,0,0,0,0,0,0,0.50615,-0.0057616,0,0.50619,0,0,0,45,0,0,0,0.28,0.9,0
0.69295,0,0,0,0,0,0,0,0,0,0,0,0,0.50489,-0.005976,0,0.50493,0,0,0,45,0,0,0,0.3,0.9,0
0.67278,0,0,0,0,0,0,0,0,0,0,0,0,0.50359,-0.0061335,0,0.50363,0,0,0,45,0,0,0,0.32,0.9,0
0.65266,0,0,0,0,0,0,0,0,0,0,0,0,0.50225,-0.006227,0,0.50229,0,0,0,45,0,0,0,0.34,0.9,0
0.6326,0,0,0,0,0,0,0,0,0,0,0,0,0.50089,-0.0062499,0,0.50093,0,0,0,45,0,0,0,0.36,0.9,0
0.61259,0,0,0,0,0,0,0,0,0,0,0,0,0.49952,-0.0061966,0,0.49956,0,0,0,45,0,0,0,0.38,0.9,0
0.59264,0,0,0,0,0,0,0,0,0,0,0,0,0.49817,-0.0060625,0,0.49821,0,0,0,45,0,0,0,0.4,0.9,0
0.57274,0,0,0,0,0,0,0,0,0,0,0,0,0.49685,-0.0058447,0,0.49689,0,0,0,45,0,0,0,0.42,0.9,0
0.55289,0,0,0,0,0,0,0,0,0,0,0,0,0.49559,-0.0055426,0,0.49562,0,0,0,45,0,0,0,0.44,0.9,0
0.53309,0,0,0,0,0,0,0,0,0,0,0,0,0.4944,-0.0051575,0,0.49443,0,0,0,45,0,0,0,0.46,0.9,0
0.51334,0,0,0,0,0,0,0,0,0,0,0,0,0.4933,-0.0046936,0,0.49333,0,0,0,45,0,0,0,0.48,0.9,0
0.49363,0,0,0,0,0,0,0,0,0,0,0,0,0.49232,-0.0041578,0,0.49234,0,0,0,45,0,0,0,0.5,0.9,0
0.47395,0,0,0,0,0,0,0,0,0,0,0,0,0.49146,-0.0035595,0,0.49148,0,0,0,45,0,0,0,0.52,0.9,0
0.45431,0,0,0,0,0,0,0,0,0,0,0,0,0.49075,-0.0029107,0,0.49076,0,0,0,45,0,0,0,0.54,0.9,0
0.43469,0,0,0,0,0,0,0,0,0,0,0,0,0.4902,-0.0022255,0,0.4902,0,0,0,45,0,0,0,0.56,0.9,0
0.41509,0,0,0,0,0,0,0,0,0,0,0,0,0.48981,-0.0015197,0,0.48981,0,0,0,45,0,0,0,0.58,0.9,0
0.39551,0,0,0,0,0,0,0,0,0,0,0,0,0.48958,-0.00080992,0,0.48958,0,0,0,45,0,0,0,0.6,0.9,0
0.37593,0,0,0,0,0,0,0,0,0,0,0,0,0.48952,-0.00011346,0,0.48952,0,0,0,45,0,0,0,0.62,0.9,0
0.35635,0,0,0,0,0,0,0,0,0,0,0,0,0.48962,0.00055287,0,0.48962,0,0,0,45,0,0,0,0.64,0.9,0
0.33676,0,0,0,0,0,0,0,0,0,0,0,0,0.48987,0.0011732,0,0.48987,0,0,0,45,0,0,0,0.66,0.9,0
0.31716,0,0,0,0,0,0,0,0,0,0,0,0,0.49026,0.0017334,0,0.49027,0,0,0,45,0,0,0,0.68,0.9,0
0.29754,0,0,0,0,0,0,0,0,0,0,0,0,0.49077,0.0022213,0,0.49078,0,0,0,45,0,0,0,0.7,0.9,0
0.27789,0,0,0,0,0,0,0,0,0,0,0,0,0.49139,0.0026274,0,0.49139,0,0,0,45,0,0,0,0.72,0.9,0
0.25823,0,0,0,0,0,0,0,0,0,0,0,0,0.49208,0.0029446,0,0.49209,0,0,0,45,0,0,0,0.74,0.9,0
0.23853,0,0,0,0,0,0,0,0,0,0,0,0,0.49283,0.003169,0,0.49284,0,0,0,45,0,0,0,0.76,0.9,0
0.2188,0,0,0,0,0,0,0,0,0,0,0,0,0.49362,0.003299,0,0.49363,0,0,0,45,0,0,0,0.78,0.9,0
0.19904,0,0,0,0,0,0,0,0,0,0,0,0,0.49442,0.0033358,0,0.49443,0,0,0,45,0,0,0,0.8,0.9,0
0.17925,0,0,0,0,0,0,0,0,0,0,0,0,0.49522,0.0032828,0,0.49523,0,0,0,45,0,0,0,0.82,0.9,0
0.15942,0,0,0,0,0,0,0,0,0,0,0,0,0.49598,0.0031451,0,0.49599,0,0,0,45,0,0,0,0.84,0.9,0
0.13957,0,0,0,0,0,0,0,0,0,0,0,0,0.4967,0.0029296,0,0.49671,0,0,0,45,0,0,0,0.86,0.9,0
0.11968,0,0,0,0,0,0,0,0,0,0,0,0,0.49736,0.0026444,0,0.49737,0,0,0,45,0,0,0,0.88,0.9,0
0.099778,0,0,0,0,0,0,0,0,0,0,0,0,0.49794,0.0022983,0,0.49795,0,0,0,45,0,0,0,0.9,0.9,0
0.079849,0,0,0,0,0,0,0,0,0,0,0,0,0.49844,0.0019008,0,0.49844,0,0,0,45,0,0,0,0.92,0.9,0
0.059903,0,0,0,0,0,0,0,0,0,0,0,0,0.49883,0.001462,0,0.49883,0,0,0,45,0,0,0,0.94,0.9,0
0.039943,0,0,0,0,0,0,0,0,0,0,0,0,0.49911,0.00099204,0,0.49912,0,0,0,45,0,0,0,0.96,0.9,0
0.019974,0,0,0,0,0,0,0,0,0,0,0,0,0.49929,0.00050123,0,0.49929,0,0,0,45,0,0,0,0.98,0.9,0
0,0,0,0,0,0,0,0,0,0,0,0,0,0.49935,-1.6534e-18,0,0.49935,0,0,0,45,0,0,0,1,0.9,0
1,0,0,0,0,0,0,0,0,0,0,0,0,0.51484,-3.4419e-16,0,0.51484,0,0,0,45,0,0,0,0,0.92,0
0.97941,0,0,0,0,0,0,0,0,0,0,0,0,0.5148,-0.00037475,0,0.5148,0,0,0,45,0,0,0,0.02,0.92,0
0.95882,0,0,0,0,0,0,0,0,0,0,0,0,0.51465,-0.00074866,0,0.51465,0,0,0,45,0,0,0,0.04,0.92,0
0.93823,0,0,0,0,0,0,0,0,0,0,0,0,0.51442,-0.0011208,0,0.51442,0,0,0,45,0,0,0,0.06,0.92,0
0.91766,0,0,0,0,0,0,0,0,0,0,0,0,0.51409,-0.0014901,0,0.51409,0,0,0,45,0,0,0,0.08,0.92,0
0.89711,0,0,0,0,0,0,0,0,0,0,0,0,0.51366,-0.0018553,0,0.51367,0,0,0,45,0,0,0,0.1,0.92,0
0.87657,0,0,0,0,0,0,0,0,0,0,0,0,0.51314,-0.0022147,0,0.51315,0,0,0,45,0,0,0,0.12,0.92,0
0.85606,0,0,0,0,0,0,0,0,0,0,0,0,0.51253,-0.0025664,0,0.51254,0,0,0,45,0,0,0,0.14,0.92,0
0.83557,0,0,0,0,0,0,0,0,0,0,0,0,0.51184,-0.002908,0,0.51184,0,0,0,45,0,0,0,0.16,0.92,0
0.81511,0,0,0,0,0,0,0,0,0,0,0,0,0.51105,-0.0032365,0,0.51106,0,0,0,45,0,0,0,0.18,0.92,0
0.79468,0,0,0,0,0,0,0,0,0,0,0,0,0.51018,-0.0035487,0,0.51019,0,0,0,45,0,0,0,0.2,0.92,0
0.77429,0,0,0,0,0,0,0,0,0,0,0,0,0.50923,-0.0038407,0,0.50924,0,0,0,45,0,0,0,0.22,0.92,0
0.75394,0,0,0,0,0,0,0,0,0,0,0,0,0.5082,-0.004108,0,0.50821,0,0,0,45,0,0,0,0.24,0.92,0
0.73364,0,0,0,0,0,0,0,0,0,0,0,0,0.5071,-0.004346,0,0.50712,0,0,0,45,0,0,0,0.26,0.92,0
0.71338,0,0,0,0,0,0,0,0,0,0,0,0,0.50594,-0.0045494,0,0.50596,0,0,0,45,0,0,0,0.28,0.92,0
0.69316,0,0,0,0,0,0,0,0,0,0,0,0,0.50473,-0.004713,0,0.50476,0,0,0,45,0,0,0,0.3,0.92,0
0.673,0,0,0,0,0,0,0,0,0,0,0,0,0.50348,-0.0048312,0,0.5035,0,0,0,45,0,0,0,0.32,0.92,0
0.65289,0,0,0,0,0,0,0,0,0,0,0,0,0.5022,-0.0048989,0,0.50223,0,0,0,45,0,0,0,0.34,0.92,0
0.63282,0,0,0,0,0,0,0,0,0,0,0,0,0.50091,-0.0049112,0,0.50093,0,0,0,45,0,0,0,0.36,0.92,0
0.61281,0,0,0,0,0,0,0,0,0,0,0,0,0.49961,-0.0048639,0,0.49963,0,0,0,45,0,0,0,0.38,0.92,0
0.59285,0,0,0,0,0,0,0,0,0,0,0,0,0.49833,-0.0047539,0,0.49835,0,0,0,45,0,0,0,0.4,0.92,0
0.57295,0,0,0,0,0,0,0,0,0,0,0,0,0.49709,-0.0045793,0,0.49711,0,0,0,45,0,0,0,0.42,0.92,0
0.55309,0,0,0,0,0,0,0,0,0,0,0,0,0.4959,-0.0043398,0,0.49592,0,0,0,45,0,0,0,0.44,0.92,0
0.53327,0,0,0,0,0,0,0,0,0,0,0,0,0.49478,-0.0040369,0,0.49479,0,0,0,45,0,0,0,0.46,0.92,0
0.5135,0,0,0,0,0,0,0,0,0,0,0,0,0.49375,-0.0036739,0,0.49376,0,0,0,45,0,0,0,0.48,0.92,0
0.49377,0,0,0,0,0,0,0,0,0,0,0,0,0.49282,-0.0032562,0,0.49283,0,0,0,45,0,0,0,0.5,0.92,0
0.47408,0,0,0,0,0,0,0,0,0,0,0,0,0.49201,-0.0027912,0,0.49202,0,0,0,45,0,0,0,0.52,0.92,0
0.45441,0,0,0,0,0,0,0,0,0,0,0,0,0.49134,-0.0022881,0,0.49135,0,0,0,45,0,0,0,0.54,0.92,0
0.43477,0,0,0,0,0,0,0,0,0,0,0,0,0.49081,-0.0017577,0,0.49081,0,0,0,45,0,0,0,0.56,0.92,0
0.41515,0,0,0,0,0,0,0,0,0,0,0,0,0.49043,-0.0012118,0,0.49043,0,0,0,45,0,0,0,0.58,0.92,0
0.39554,0,0,0,0,0,0,0,0,0,0,0,0,0.4902,-0.00066323,0,0.4902,0,0,0,45,0,0,0,0.6,0.92,0
0.37593,0,0,0,0,0,0,0,0,0,0,0,0,0.49012,-0.00012495,0,0.49012,0,0,0,45,0,0,0,0.62,0.92,0
0.35633,0,0,0,0,0,0,0,0,0,0,0,0,0.49019,0.00039033,0,0.49019,0,0,0,45,0,0,0,0.64,0.92,0
0.33672,0,0,0,0,0,0,0,0,0,0,0,0,0.49039,0.00087057,0,0.4904,0,0,0,45,0,0,0,0.66,0.92,0
0.3171,0,0,0,0,0,0,0,0,0,0,0,0,0.49073,0.001305,0,0.49073,0,0,0,45,0,0,0,0.68,0.92,0
0.29746,0,0,0,0,0,0,0,0,0,0,0,0,0.49117,0.0016842,0,0.49117,0,0,0,45,0,0,0,0.7,0.92,0
0.2778,0,0,0,0,0,0,0,0,0,0,0,0,0.49171,0.002001,0,0.49171,0,0,0,45,0,0,0,0.72,0.92,0
0.25812,0,0,0,0,0,0,0,0,0,0,0,0,0.49232,0.0022498,0,0.49233,0,0,0,45,0,0,0,0.74,0.92,0
0.23842,0,0,0,0,0,0,0,0,0,0,0,0,0.49299,0.0024272,0,0.493,0,0,0,45,0,0,0,0.76,0.92,0
0.21868,0,0,0,0,0,0,0,0,0,0,0,0,0.49369,0.0025321,0,0.4937,0,0,0,45,0,0,0,0.78,0.92,0
0.19892,0,0,0,0,0,0,0,0,0,0,0,0,0.49442,0.0025649,0,0.49442,0,0,0,45,0,0,0,0.8,0.92,0
0.17913,0,0,0,0,0,0,0,0,0,0,0,0,0.49513,0.0025281,0,0.49514,0,0,0,45,0,0,0,0.82,0.92,0
0.15931,0,0,0,0,0,0,0,0,0,0,0,0,0.49583,0.0024255,0,0.49584,0,0,0,45,0,0,0,0.84,0.92,0
0.13946,0,0,0,0,0,0,0,0,0,0,0,0,0.49649,0.0022621,0,0.49649,0,0,0,45,0,0,0,0.86,0.92,0
0.11959,0,0,0,0,0,0,0,0,0,0,0,0,0.49709,0.0020441,0,0.49709,0,0,0,45,0,0,0,0.88,0.92,0
0.099697,0,0,0,0,0,0,0,0,0,0,0,0,0.49762,0.0017782,0,0.49762,0,0,0,45,0,0,0,0.9,0.92,0
0.079782,0,0,0,0,0,0,0,0,0,0,0,0,0.49807,0.0014718,0,0.49807,0,0,0,45,0,0,0,0.92,0.92,0
0.059851,0,0,0,0,0,0,0,0,0,0,0,0,0.49843,0.0011327,0,0.49843,0,0,0,45,0,0,0,0.94,0.92,0
0.039908,0,0,0,0,0,0,0,0,0,0,0,0,0.49869,0.0007689,0,0.49869,0,0,0,45,0,0,0,0.96,0.92,0
0.019956,0,0,0,0,0,0,0,0,0,0,0,0,0.49885,0.00038859,0,0.49885,0,0,0,45,0,0,0,0.98,0.92,0
0,0,0,0,0,0,0,0,0,0,0,0,0,0.4989,-3.8896e-18,0,0.4989,0,0,0,45,0,0,0,1,0.92,0
1,0,0,0,0,0,0,0,0,0,0,0,0,0.51452,-1.8532e-15,0,0.51452,0,0,0,45,0,0,0,0,0.94,0
0.97942,0,0,0,0,0,0,0,0,0,0,0,0,0.51447,-0.00028025,0,0.51447,0,0,0,45,0,0,0,0.02,0.94,0
0.95884,0,0,0,0,0,0,0,0,0,0,0,0,0.51433,-0.0005598,0,0.51433,0,0,0,45,0,0,0,0.04,0.94,0
0.93827,0,0,0,0,0,0,0,0,0,0,0,0,0.51409,-0.0008379,0,0.51409,0,0,0,45,0,0,0,0.06,0.94,0
0.91771,0,0,0,0,0,0,0,0,0,0,0,0,0.51377,-0.0011137,0,0.51377,0,0,0,45,0,0,0,0.08,0.94,0
0.89717,0,0,0,0,0,0,0,0,0,0,0,0,0.51335,-0.0013861,0,0.51335,0,0,0,45,0,0,0,0.1,0.94,0
0.87665,0,0,0,0,0,0,0,0,0,0,0,0,0.51283,-0.0016539,0,0.51284,0,0,0,45,0,0,0,0.12,0.94,0
0.85615,0,0,0,0,0,0,0,0,0,0,0,0,0.51223,-0.0019155,0,0.51224,0,0,0,45,0,0,0,0.14,0.94,0
0.83567,0,0,0,0,0,0,0,0,0,0,0,0,0.51154,-0.0021691,0,0.51155,0,0,0,45,0,0,0,0.16,0.94,0
0.81522,0,0,0,0,0,0,0,0,0,0,0,0,0.51077,-0.0024126,0,0.51078,0,0,0,45,0,0,0,0.18,0.94,0
0.79481,0,0,0,0,0,0,0,0,0,0,0,0,0.50992,-0.0026434,0,0.50992,0,0,0,45,0,0,0,0.2,0.94,0
0.77443,0,0,0,0,0,0,0,0,0,0,0,0,0.50898,-0.0028586,0,0.50899,0,0,0,45,0,0,0,0.22,0.94,0
0.75409,0,0,0,0,0,0,0,0,0,0,0,0,0.50798,-0.003055,0,0.50799,0,0,0,45,0,0,0,0.24,0.94,0
0.73379,0,0,0,0,0,0,0,0,0,0,0,0,0.50691,-0.0032291,0,0.50692,0,0,0,45,0,0,0,0.26,0.94,0
0.71354,0,0,0,0,0,0,0,0,0,0,0,0,0.50579,-0.0033772,0,0.5058,0,0,0,45,0,0,0,0.28,0.94,0
0.69333,0,0,0,0,0,0,0,0,0,0,0,0,0.50461,-0.0034953,0,0.50463,0,0,0,45,0,0,0,0.3,0.94,0
0.67317,0,0,0,0,0,0,0,0,0,0,0,0,0.5034,-0.0035796,0,0.50342,0,0,0,45,0,0,0,0.32,0.94,0
0.65306,0,0,0,0,0,0,0,0,0,0,0,0,0.50217,-0.0036264,0,0.50218,0,0,0,45,0,0,0,0.34,0.94,0
0.63299,0,0,0,0,0,0,0,0,0,0,0,0,0.50092,-0.0036323,0,0.50094,0,0,0,45,0,0,0,0.36,0.94,0
0.61298,0,0,0,0,0,0,0,0,0,0,0,0,0.49968,-0.0035943,0,0.49969,0,0,0,45,0,0,0,0.38,0.94,0
0.59302,0,0,0,0,0,0,0,0,0,0,0,0,0.49846,-0.0035104,0,0.49847,0,0,0,45,0,0,0,0.4,0.94,0
0.5731,0,0,0,0,0,0,0,0,0,0,0,0,0.49727,-0.0033794,0,0.49728,0,0,0,45,0,0,0,0.42,0.94,0
0.55324,0,0,0,0,0,0,0,0,0,0,0,0,0.49613,-0.0032012,0,0.49614,0,0,0,45,0,0,0,0.44,0.94,0
0.53341,0,0,0,0,0,0,0,0,0,0,0,0,0.49507,-0.002977,0,0.49508,0,0,0,45,0,0,0,0.46,0.94,0
0.51363,0,0,0,0,0,0,0,0,0,0,0,0,0.49408,-0.0027094,0,0.49409,0,0,0,45,0,0,0,0.48,0.94,0
0.49389,0,0,0,0,0,0,0,0,0,0,0,0,0.4932,-0.0024025,0,0.49321,0,0,0,45,0,0,0,0.5,0.94,0
0.47418,0,0,0,0,0,0,0,0,0,0,0,0,0.49243,-0.0020615,0,0.49244,0,0,0,45,0,0,0,0.52,0.94,0
0.45449,0,0,0,0,0,0,0,0,0,0,0,0,0.49179,-0.0016933,0,0.49179,0,0,0,45,0,0,0,0.54,0.94,0
0.43483,0,0,0,0,0,0,0,0,0,0,0,0,0.49127,-0.0013055,0,0.49128,0,0,0,45,0,0,0,0.56,0.94,0
0.41519,0,0,0,0,0,0,0,0,0,0,0,0,0.4909,-0.00090674,0,0.4909,0,0,0,45,0,0,0,0.58,0.94,0
0.39556,0,0,0,0,0,0,0,0,0,0,0,0,0.49067,-0.00050619,0,0.49067,0,0,0,45,0,0,0,0.6,0.94,0
0.37594,0,0,0,0,0,0,0,0,0,0,0,0,0.49057,-0.00011316,0,0.49057,0,0,0,45,0,0,0,0.62,0.94,0
0.35631,0,0,0,0,0,0,0,0,0,0,0,0,0.49062,0.00026321,0,0.49062,0,0,0,45,0,0,0,0.64,0.94,0
0.33669,0,0,0,0,0,0,0,0,0,0,0,0,0.49079,0.00061428,0,0.49079,0,0,0,45,0,0,0,0.66,0.94,0
0.31705,0,0,0,0,0,0,0,0,0,0,0,0,0.49108,0.00093224,0,0.49108,0,0,0,45,0,0,0,0.68,0.94,0
0.2974,0,0,0,0,0,0,0,0,0,0,0,0,0.49147,0.0012104,0,0.49147,0,0,0,45,0,0,0,0.7,0.94,0
0.27773,0,0,0,0,0,0,0,0,0,0,0,0,0.49195,0.0014433,0,0.49195,0,0,0,45,0,0,0,0.72,0.94,0
0.25805,0,0,0,0,0,0,0,0,0,0,0,0,0.49251,0.0016269,0,0.49251,0,0,0,45,0,0,0,0.74,0.94,0
0.23833,0,0,0,0,0,0,0,0,0,0,0,0,0.49311,0.0017588,0,0.49312,0,0,0,45,0,0,0,0.76,0.94,0
0.2186,0,0,0,0,0,0,0,0,0,0,0,0,0.49376,0.0018378,0,0.49376,0,0,0,45,0,0,0,0.78,0.94,0
0.19883,0,0,0,0,0,0,0,0,0,0,0,0,0.49442,0.0018643,0,0.49442,0,0,0,45,0,0,0,0.8,0.94,0
0.17904,0,0,0,0,0,0,0,0,0,0,0,0,0.49508,0.0018398,0,0.49508,0,0,0,45,0,0,0,0.82,0.94,0
0.15923,0,0,0,0,0,0,0,0,0,0,0,0,0.49572,0.001767,0,0.49572,0,0,0,45,0,0,0,0.84,0.94,0
0.13939,0,0,0,0,0,0,0,0,0,0,0,0,0.49632,0.0016496,0,0.49633,0,0,0,45,0,0,0,0.86,0.94,0
0.11952,0,0,0,0,0,0,0,0,0,0,0,0,0.49688,0.0014918,0,0.49688,0,0,0,45,0,0,0,0.88,0.94,0
0.099636,0,0,0,0,0,0,0,0,0,0,0,0,0.49737,0.0012986,0,0.49737,0,0,0,45,0,0,0,0.9,0.94,0
0.079732,0,0,0,0,0,0,0,0,0,0,0,0,0.49779,0.0010755,0,0.49779,0,0,0,45,0,0,0,0.92,0.94,0
0.059812,0,0,0,0,0,0,0,0,0,0,0,0,0.49813,0.0008281,0,0.49813,0,0,0,45,0,0,0,0.94,0.94,0
0.039882,0,0,0,0,0,0,0,0,0,0,0,0,0.49837,0.00056233,0,0.49837,0,0,0,45,0,0,0,0.96,0.94,0
0.019943,0,0,0,0,0,0,0,0,0,0,0,0,0.49852,0.00028425,0,0.49852,0,0,0,45,0,0,0,0.98,0.94,0
0,0,0,0,0,0,0,0,0,0,0,0,0,0.49857,1.339e-17,0,0.49857,0,0,0,45,0,0,0,1,0.94,0
1,0,0,0,0,0,0,0,0,0,0,0,0,0.51428,-1.6771e-15,0,0.51428,0,0,0,45,0,0,0,0,0.96,0
0.97943,0,0,0,0,0,0,0,0,0,0,0,0,0.51424,-0.00018643,0,0.51424,0,0,0,45,0,0,0,0.02,0.96,0
0.95886,0,0,0,0,0,0,0,0,0,0,0,0,0.5141,-0.00037235,0,0.5141,0,0,0,45,0,0,0,0.04,0.96,0
0.9383,0,0,0,0,0,0,0,0,0,0,0,0,0.51386,-0.00055725,0,0.51386,0,0,0,45,0,0,0,0.06,0.96,0
0.91775,0,0,0,0,0,0,0,0,0,0,0,0,0.51354,-0.0007405,0,0.51354,0,0,0,45,0,0,0,0.08,0.96,0
0.89722,0,0,0,0,0,0,0,0,0,0,0,0,0.51312,-0.00092139,0,0.51312,0,0,0,45,0,0,0,0.1,0.96,0
0.8767,0,0,0,0,0,0,0,0,0,0,0,0,0.51261,-0.0010991,0,0.51262,0,0,0,45,0,0,0,0.12,0.96,0
0.85621,0,0,0,0,0,0,0,0,0,0,0,0,0.51202,-0.0012724,0,0.51202,0,0,0,45,0,0,0,0.14,0.96,0
0.83574,0,0,0,0,0,0,0,0,0,0,0,0,0.51134,-0.0014403,0,0.51134,0,0,0,45,0,0,0,0.16,0.96,0
0.8153,0,0,0,0,0,0,0,0,0,0,0,0,0.51057,-0.0016012,0,0.51058,0,0,0,45,0,0,0,0.18,0.96,0
0.7949,0,0,0,0,0,0,0,0,0,0,0,0,0.50973,-0.0017535,0,0.50973,0,0,0,45,0,0,0,0.2,0.96,0
0.77452,0,0,0,0,0,0,0,0,0,0,0,0,0.50881,-0.0018952,0,0.50882,0,0,0,45,0,0,0,0.22,0.96,0
0.75419,0,0,0,0,0,0,0,0,0,0,0,0,0.50783,-0.0020242,0,0.50783,0,0,0,45,0,0,0,0.24,0.96,0
0.7339,0,0,0,0,0,0,0,0,0,0,0,0,0.50678,-0.0021382,0,0.50678,0,0,0,45,0,0,0,0.26,0.96,0
0.71365,0,0,0,0,0,0,0,0,0,0,0,0,0.50568,-0.0022348,0,0.50568,0,0,0,45,0,0,0,0.28,0.96,0
0.69344,0,0,0,0,0,0,0,0,0,0,0,0,0.50453,-0.0023115,0,0.50454,0,0,0,45,0,0,0,0.3,0.96,0
0.67329,0,0,0,0,0,0,0,0,0,0,0,0,0.50335,-0.0023657,0,0.50336,0,0,0,45,0,0,0,0.32,0.96,0
0.65317,0,0,0,0,0,0,0,0,0,0,0,0,0.50215,-0.0023951,0,0.50216,0,0,0,45,0,0,0,0.34,0.96,0
0.63311,0,0,0,0,0,0,0,0,0,0,0,0,0.50094,-0.0023974,0,0.50094,0,0,0,45,0,0,0,0.36,0.96,0
0.6131,0,0,0,0,0,0,0,0,0,0,0,0,0.49973,-0.002371,0,0.49974,0,0,0,45,0,0,0,0.38,0.96,0
0.59313,0,0,0,0,0,0,0,0,0,0,0,0,0.49855,-0.0023145,0,0.49855,0,0,0,45,0,0,0,0.4,0.96,0
0.57322,0,0,0,0,0,0,0,0,0,0,0,0,0.4974,-0.0022271,0,0.4974,0,0,0,45,0,0,0,0.42,0.96,0
0.55334,0,0,0,0,0,0,0,0,0,0,0,0,0.4963,-0.002109,0,0.4963,0,0,0,45,0,0,0,0.44,0.96,0
0.53351,0,0,0,0,0,0,0,0,0,0,0,0,0.49527,-0.001961,0,0.49527,0,0,0,45,0,0,0,0.46,0.96,0
0.51372,0,0,0,0,0,0,0,0,0,0,0,0,0.49432,-0.0017849,0,0.49433,0,0,0,45,0,0,0,0.48,0.96,0
0.49397,0,0,0,0,0,0,0,0,0,0,0,0,0.49347,-0.0015832,0,0.49347,0,0,0,45,0,0,0,0.5,0.96,0
0.47424,0,0,0,0,0,0,0,0,0,0,0,0,0.49272,-0.0013595,0,0.49273,0,0,0,45,0,0,0,0.52,0.96,0
0.45455,0,0,0,0,0,0,0,0,0,0,0,0,0.4921,-0.0011183,0,0.4921,0,0,0,45,0,0,0,0.54,0.96,0
0.43488,0,0,0,0,0,0,0,0,0,0,0,0,0.4916,-0.00086441,0,0.4916,0,0,0,45,0,0,0,0.56,0.96,0
0.41522,0,0,0,0,0,0,0,0,0,0,0,0,0.49123,-0.00060355,0,0.49123,0,0,0,45,0,0,0,0.58,0.96,0
0.39558,0,0,0,0,0,0,0,0,0,0,0,0,0.49099,-0.00034158,0,0.49099,0,0,0,45,0,0,0,0.6,0.96,0
0.37594,0,0,0,0,0,0,0,0,0,0,0,0,0.49089,-8.4531e-05,0,0.49089,0,0,0,45,0,0,0,0.62,0.96,0
0.35631,0,0,0,0,0,0,0,0,0,0,0,0,0.49092,0.00016169,0,0.49092,0,0,0,45,0,0,0,0.64,0.96,0
0.33667,0,0,0,0,0,0,0,0,0,0,0,0,0.49106,0.00039148,0,0.49106,0,0,0,45,0,0,0,0.66,0.96,0
0.31702,0,0,0,0,0,0,0,0,0,0,0,0,0.49132,0.00059979,0,0.49132,0,0,0,45,0,0,0,0.68,0.96,0
0.29736,0,0,0,0,0,0,0,0,0,0,0,0,0.49168,0.00078224,0,0.49168,0,0,0,45,0,0,0,0.7,0.96,0
0.27769,0,0,0,0,0,0,0,0,0,0,0,0,0.49212,0.00093529,0,0.49212,0,0,0,45,0,0,0,0.72,0.96,0
0.25799,0,0,0,0,0,0,0,0,0,0,0,0,0.49263,0.0010563,0,0.49264,0,0,0,45,0,0,0,0.74,0.96,0
0.23828,0,0,0,0,0,0,0,0,0,0,0,0,0.4932,0.0011436,0,0.4932,0,0,0,45,0,0,0,0.76,0.96,0
0.21854,0,0,0,0,0,0,0,0,0,0,0,0,0.4938,0.0011964,0,0.4938,0,0,0,45,0,0,0,0.78,0.96,0
0.19877,0,0,0,0,0,0,0,0,0,0,0,0,0.49442,0.0012149,0,0.49442,0,0,0,45,0,0,0,0.8,0.96,0
0.17898,0,0,0,0,0,0,0,0,0,0,0,0,0.49504,0.0012,0,0.49504,0,0,0,45,0,0,0,0.82,0.96,0
0.15917,0,0,0,0,0,0,0,0,0,0,0,0,0.49564,0.0011534,0,0.49564,0,0,0,45,0,0,0,0.84,0.96,0
0.13933,0,0,0,0,0,0,0,0,0,0,0,0,0.49621,0.0010775,0,0.49621,0,0,0,45,0,0,0,0.86,0.96,0
0.11947,0,0,0,0,0,0,0,0,0,0,0,0,0.49673,0.00097502,0,0.49674,0,0,0,45,0,0,0,0.88,0.96,0
0.099593,0,0,0,0,0,0,0,0,0,0,0,0,0.4972,0.00084921,0,0.4972,0,0,0,45,0,0,0,0.9,0.96,0
0.079696,0,0,0,0,0,0,0,0,0,0,0,0,0.4976,0.00070359,0,0.4976,0,0,0,45,0,0,0,0.92,0.96,0
0.059785,0,0,0,0,0,0,0,0,0,0,0,0,0.49791,0.00054191,0,0.49791,0,0,0,45,0,0,0,0.94,0.96,0
0.039863,0,0,0,0,0,0,0,0,0,0,0,0,0.49815,0.00036808,0,0.49815,0,0,0,45,0,0,0,0.96,0.96,0
0.019933,0,0,0,0,0,0,0,0,0,0,0,0,0.49829,0.00018608,0,0.49829,0,0,0,45,0,0,0,0.98,0.96,0
0,0,0,0,0,0,0,0,0,0,0,0,0,0.49834,-7.9282e-19,0,0.49834,0,0,0,45,0,0,0,1,0.96,0
1,0,0,0,0,0,0,0,0,0,0,0,0,0.51414,-4.9009e-16,0,0.51414,0,0,0,45,0,0,0,0,0.98,0
0.97943,0,0,0,0,0,0,0,0,0,0,0,0,0.5141,-9.3087e-05,0,0.5141,0,0,0,45,0,0,0,0.02,0.98,0
0.95887,0,0,0,0,0,0,0,0,0,0,0,0,0.51396,-0.00018592,0,0.51396,0,0,0,45,0,0,0,0.04,0.98,0
0.93832,0,0,0,0,0,0,0,0,0,0,0,0,0.51372,-0.00027821,0,0.51372,0,0,0,45,0,0,0,0.06,0.98,0
0.91777,0,0,0,0,0,0,0,0,0,0,0,0,0.5134,-0.00036965,0,0.5134,0,0,0,45,0,0,0,0.08,0.98,0
0.89725,0,0,0,0,0,0,0,0,0,0,0,0,0.51299,-0.00045988,0,0.51299,0,0,0,45,0,0,0,0.1,0.98,0
0.87674,0,0,0,0,0,0,0,0,0,0,0,0,0.51248,-0.00054845,0,0.51248,0,0,0,45,0,0,0,0.12,0.98,0
0.85625,0,0,0,0,0,0,0,0,0,0,0,0,0.51189,-0.00063483,0,0.51189,0,0,0,45,0,0,0,0.14,0.98,0
0.83578,0,0,0,0,0,0,0,0,0,0,0,0,0.51121,-0.00071841,0,0.51122,0,0,0,45,0,0,0,0.16,0.98,0
0.81535,0,0,0,0,0,0,0,0,0,0,0,0,0.51046,-0.00079844,0,0.51046,0,0,0,45,0,0,0,0.18,0.98,0
0.79495,0,0,0,0,0,0,0,0,0,0,0,0,0.50962,-0.0008741,0,0.50962,0,0,0,45,0,0,0,0.2,0.98,0
0.77458,0,0,0,0,0,0,0,0,0,0,0,0,0.50871,-0.00094442,0,0.50871,0,0,0,45,0,0,0,0.22,0.98,0
0.75425,0,0,0,0,0,0,0,0,0,0,0,0,0.50774,-0.0010084,0,0.50774,0,0,0,45,0,0,0,0.24,0.98,0
0.73396,0,0,0,0,0,0,0,0,0,0,0,0,0.5067,-0.0010647,0,0.5067,0,0,0,45,0,0,0,0.26,0.98,0
0.71371,0,0,0,0,0,0,0,0,0,0,0,0,0.50561,-0.0011124,0,0.50561,0,0,0,45,0,0,0,0.28,0.98,0
0.69351,0,0,0,0,0,0,0,0,0,0,0,0,0.50448,-0.0011501,0,0.50448,0,0,0,45,0,0,0,0.3,0.98,0
0.67336,0,0,0,0,0,0,0,0,0,0,0,0,0.50332,-0.0011766,0,0.50332,0,0,0,45,0,0,0,0.32,0.98,0
0.65325,0,0,0,0,0,0,0,0,0,0,0,0,0.50214,-0.0011908,0,0.50214,0,0,0,45,0,0,0,0.34,0.98,0
0.63318,0,0,0,0,0,0,0,0,0,0,0,0,0.50095,-0.0011915,0,0.50095,0,0,0,45,0,0,0,0.36,0.98,0
0.61317,0,0,0,0,0,0,0,0,0,0,0,0,0.49976,-0.001178,0,0.49977,0,0,0,45,0,0,0,0.38,0.98,0
0.5932,0,0,0,0,0,0,0,0,0,0,0,0,0.4986,-0.0011496,0,0.4986,0,0,0,45,0,0,0,0.4,0.98,0
0.57328,0,0,0,0,0,0,0,0,0,0,0,0,0.49748,-0.0011059,0,0.49748,0,0,0,45,0,0,0,0.42,0.98,0
0.55341,0,0,0,0,0,0,0,0,0,0,0,0,0.4964,-0.0010471,0,0.4964,0,0,0,45,0,0,0,0.44,0.98,0
0.53357,0,0,0,0,0,0,0,0,0,0,0,0,0.49539,-0.00097351,0,0.49539,0,0,0,45,0,0,0,0.46,0.98,0
0.51377,0,0,0,0,0,0,0,0,0,0,0,0,0.49446,-0.00088609,0,0.49446,0,0,0,45,0,0,0,0.48,0.98,0
0.49401,0,0,0,0,0,0,0,0,0,0,0,0,0.49363,-0.00078613,0,0.49363,0,0,0,45,0,0,0,0.5,0.98,0
0.47428,0,0,0,0,0,0,0,0,0,0,0,0,0.4929,-0.00067539,0,0.4929,0,0,0,45,0,0,0,0.52,0.98,0
0.45458,0,0,0,0,0,0,0,0,0,0,0,0,0.49228,-0.00055601,0,0.49228,0,0,0,45,0,0,0,0.54,0.98,0
0.4349,0,0,0,0,0,0,0,0,0,0,0,0,0.49179,-0.00043046,0,0.49179,0,0,0,45,0,0,0,0.56,0.98,0
0.41524,0,0,0,0,0,0,0,0,0,0,0,0,0.49142,-0.0003015,0,0.49142,0,0,0,45,0,0,0,0.58,0.98,0
0.39559,0,0,0,0,0,0,0,0,0,0,0,0,0.49119,-0.00017201,0,0.49119,0,0,0,45,0,0,0,0.6,0.98,0
0.37594,0,0,0,0,0,0,0,0,0,0,0,0,0.49108,-4.496e-05,0,0.49108,0,0,0,45,0,0,0,0.62,0.98,0
0.3563,0,0,0,0,0,0,0,0,0,0,0,0,0.49109,7.6758e-05,0,0.49109,0,0,0,45,0,0,0,0.64,0.98,0
0.33666,0,0,0,0,0,0,0,0,0,0,0,0,0.49123,0.0001904,0,0.49123,0,0,0,45,0,0,0,0.66,0.98,0
0.317,0,0,0,0,0,0,0,0,0,0,0,0,0.49147,0.00029346,0,0.49147,0,0,0,45,0,0,0,0.68,0.98,0
0.29734,0,0,0,0,0,0,0,0,0,0,0,0,0.4918,0.00038381,0,0.4918,0,0,0,45,0,0,0,0.7,0.98,0
0.27766,0,0,0,0,0,0,0,0,0,0,0,0,0.49223,0.00045967,0,0.49223,0,0,0,45,0,0,0,0.72,0.98,0
0.25796,0,0,0,0,0,0,0,0,0,0,0,0,0.49271,0.00051976,0,0.49271,0,0,0,45,0,0,0,0.74,0.98,0
0.23824,0,0,0,0,0,0,0,0,0,0,0,0,0.49325,0.00056322,0,0.49325,0,0,0,45,0,0,0,0.76,0.98,0
0.2185,0,0,0,0,0,0,0,0,0,0,0,0,0.49383,0.00058966,0,0.49383,0,0,0,45,0,0,0,0.78,0.98,0
0.19874,0,0,0,0,0,0,0,0,0,0,0,0,0.49442,0.00059913,0,0.49442,0,0,0,45,0,0,0,0.8,0.98,0
0.17895,0,0,0,0,0,0,0,0,0,0,0,0,0.49501,0.00059211,0,0.49502,0,0,0,45,0,0,0,0.82,0.98,0
0.15913,0,0,0,0,0,0,0,0,0,0,0,0,0.4956,0.0005694,0,0.4956,0,0,0,45,0,0,0,0.84,0.98,0
0.1393,0,0,0,0,0,0,0,0,0,0,0,0,0.49614,0.00053213,0,0.49615,0,0,0,45,0,0,0,0.86,0.98,0
0.11944,0,0,0,0,0,0,0,0,0,0,0,0,0.49665,0.00048169,0,0.49665,0,0,0,45,0,0,0,0.88,0.98,0
0.099568,0,0,0,0,0,0,0,0,0,0,0,0,0.4971,0.00041966,0,0.4971,0,0,0,45,0,0,0,0.9,0.98,0
0.079675,0,0,0,0,0,0,0,0,0,0,0,0,0.49748,0.00034779,0,0.49748,0,0,0,45,0,0,0,0.92,0.98,0
0.059769,0,0,0,0,0,0,0,0,0,0,0,0,0.49779,0.00026792,0,0.49779,0,0,0,45,0,0,0,0.94,0.98,0
0.039852,0,0,0,0,0,0,0,0,0,0,0,0,0.49801,0.000182,0,0.49801,0,0,0,45,0,0,0,0.96,0.98,0
0.019928,0,0,0,0,0,0,0,0,0,0,0,0,0.49815,9.202e-05,0,0.49815,0,0,0,45,0,0,0,0.98,0.98,0
0,0,0,0,0,0,0,0,0,0,0,0,0,0.4982,-1.2299e-17,0,0.4982,0,0,0,45,0,0,0,1,0.98,0
1,0,0,0,0,0,0,0,0,0,0,0,0,0.5141,6.6527e-16,0,0.5141,0,0,0,45,0,0,0,0,1,0
0.97944,0,0,0,0,0,0,0,0,0,0,0,0,0.51405,-4.6511e-05,0,0.51405,0,0,0,45,0,0,0,0.02,1,0
0.95888,0,0,0,0,0,0,0,0,0,0,0,0,0.51391,-9.2892e-05,0,0.51391,0,0,0,45,0,0,0,0.04,1,0
0.93832,0,0,0,0,0,0,0,0,0,0,0,0,0.51368,-0.000139,0,0.51368,0,0,0,45,0,0,0,0.06,1,0
0.91778,0,0,0,0,0,0,0,0,0,0,0,0,0.51336,-0.00018468,0,0.51336,0,0,0,45,0,0,0,0.08,1,0
0.89726,0,0,0,0,0,0,0,0,0,0,0,0,0.51294,-0.00022973,0,0.51294,0,0,0,45,0,0,0,0.1,1,0
0.87675,0,0,0,0,0,0,0,0,0,0,0,0,0.51244,-0.00027395,0,0.51244,0,0,0,45,0,0,0,0.12,1,0
0.85626,0,0,0,0,0,0,0,0,0,0,0,0,0.51185,-0.00031707,0,0.51185,0,0,0,45,0,0,0,0.14,1,0
0.8358,0,0,0,0,0,0,0,0,0,0,0,0,0.51117,-0.00035876,0,0.51117,0,0,0,45,0,0,0,0.16,1,0
0.81537,0,0,0,0,0,0,0,0,0,0,0,0,0.51042,-0.00039867,0,0.51042,0,0,0,45,0,0,0,0.18,1,0
0.79497,0,0,0,0,0,0,0,0,0,0,0,0,0.50958,-0.00043638,0,0.50958,0,0,0,45,0,0,0,0.2,1,0
0.7746,0,0,0,0,0,0,0,0,0,0,0,0,0.50868,-0.00047141,0,0.50868,0,0,0,45,0,0,0,0.22,1,0
0.75427,0,0,0,0,0,0,0,0,0,0,0,0,0.50771,-0.00050323,0,0.50771,0,0,0,45,0,0,0,0.24,1,0
0.73398,0,0,0,0,0,0,0,0,0,0,0,0,0.50667,-0.00053129,0,0.50667,0,0,0,45,0,0,0,0.26,1,0
0.71374,0,0,0,0,0,0,0,0,0,0,0,0,0.50559,-0.00055497,0,0.50559,0,0,0,45,0,0,0,0.28,1,0
0.69354,0,0,0,0,0,0,0,0,0,0,0,0,0.50447,-0.00057367,0,0.50447,0,0,0,45,0,0,0,0.3,1,0
0.67338,0,0,0,0,0,0,0,0,0,0,0,0,0.50331,-0.00058677,0,0.50331,0,0,0,45,0,0,0,0.32,1,0
0.65327,0,0,0,0,0,0,0,0,0,0,0,0,0.50213,-0.00059372,0,0.50213,0,0,0,45,0,0,0,0.34,1,0
0.63321,0,0,0,0,0,0,0,0,0,0,0,0,0.50095,-0.00059398,0,0.50095,0,0,0,45,0,0,0,0.36,1,0
0.61319,0,0,0,0,0,0,0,0,0,0,0,0,0.49977,-0.00058713,0,0.49978,0,0,0,45,0,0,0,0.38,1,0
0.59323,0,0,0,0,0,0,0,0,0,0,0,0,0.49862,-0.00057288,0,0.49862,0,0,0,45,0,0,0,0.4,1,0
0.5733,0,0,0,0,0,0,0,0,0,0,0,0,0.4975,-0.00055105,0,0.4975,0,0,0,45,0,0,0,0.42,1,0
0.55343,0,0,0,0,0,0,0,0,0,0,0,0,0.49643,-0.00052169,0,0.49643,0,0,0,45,0,0,0,0.44,1,0
0.53359,0,0,0,0,0,0,0,0,0,0,0,0,0.49543,-0.00048502,0,0.49543,0,0,0,45,0,0,0,0.46,1,0
0.51379,0,0,0,0,0,0,0,0,0,0,0,0,0.49451,-0.00044147,0,0.49451,0,0,0,45,0,0,0,0.48,1,0
0.49403,0,0,0,0,0,0,0,0,0,0,0,0,0.49368,-0.00039171,0,0.49368,0,0,0,45,0,0,0,0.5,1,0
0.4743,0,0,0,0,0,0,0,0,0,0,0,0,0.49295,-0.00033661,0,0.49295,0,0,0,45,0,0,0,0.52,1,0
0.45459,0,0,0,0,0,0,0,0,0,0,0,0,0.49234,-0.00027723,0,0.49234,0,0,0,45,0,0,0,0.54,1,0
0.43491,0,0,0,0,0,0,0,0,0,0,0,0,0.49185,-0.0002148,0,0.49185,0,0,0,45,0,0,0,0.56,1,0
0.41524,0,0,0,0,0,0,0,0,0,0,0,0,0.49149,-0.00015069,0,0.49149,0,0,0,45,0,0,0,0.58,1,0
0.39559,0,0,0,0,0,0,0,0,0,0,0,0,0.49125,-8.6312e-05,0,0.49125,0,0,0,45,0,0,0,0.6,1,0
0.37594,0,0,0,0,0,0,0,0,0,0,0,0,0.49114,-2.3149e-05,0,0.49114,0,0,0,45,0,0,0,0.62,1,0
0.3563,0,0,0,0,0,0,0,0,0,0,0,0,0.49115,3.7366e-05,0,0.49115,0,0,0,45,0,0,0,0.64,1,0
0.33665,0,0,0,0,0,0,0,0,0,0,0,0,0.49128,9.3873e-05,0,0.49128,0,0,0,45,0,0,0,0.66,1,0
0.317,0,0,0,0,0,0,0,0,0,0,0,0,0.49151,0.00014514,0,0.49151,0,0,0,45,0,0,0,0.68,1,0
0.29733,0,0,0,0,0,0,0,0,0,0,0,0,0.49184,0.00019009,0,0.49184,0,0,0,45,0,0,0,0.7,1,0
0.27765,0,0,0,0,0,0,0,0,0,0,0,0,0.49226,0.00022786,0,0.49226,0,0,0,45,0,0,0,0.72,1,0
0.25795,0,0,0,0,0,0,0,0,0,0,0,0,0.49274,0.0002578,0,0.49274,0,0,0,45,0,0,0,0.74,1,0
0.23823,0,0,0,0,0,0,0,0,0,0,0,0,0.49327,0.00027948,0,0.49327,0,0,0,45,0,0,0,0.76,1,0
0.21849,0,0,0,0,0,0,0,0,0,0,0,0,0.49384,0.0002927,0,0.49384,0,0,0,45,0,0,0,0.78,1,0
0.19872,0,0,0,0,0,0,0,0,0,0,0,0,0.49442,0.0002975,0,0.49442,0,0,0,45,0,0,0,0.8,1,0
0.17894,0,0,0,0,0,0,0,0,0,0,0,0,0.49501,0.00029409,0,0.49501,0,0,0,45,0,0,0,0.82,1,0
0.15912,0,0,0,0,0,0,0,0,0,0,0,0,0.49558,0.00028288,0,0.49558,0,0,0,45,0,0,0,0.84,1,0
0.13929,0,0,0,0,0,0,0,0,0,0,0,0,0.49612,0.00026442,0,0.49612,0,0,0,45,0,0,0,0.86,1,0
0.11943,0,0,0,0,0,0,0,0,0,0,0,0,0.49662,0.0002394,0,0.49662,0,0,0,45,0,0,0,0.88,1,0
0.099559,0,0,0,0,0,0,0,0,0,0,0,0,0.49707,0.0002086,0,0.49707,0,0,0,45,0,0,0,0.9,1,0
0.079668,0,0,0,0,0,0,0,0,0,0,0,0,0.49745,0.00017289,0,0.49745,0,0,0,45,0,0,0,0.92,1,0
0.059764,0,0,0,0,0,0,0,0,0,0,0,0,0.49775,0.0001332,0,0.49775,0,0,0,45,0,0,0,0.94,1,0
0.039849,0,0,0,0,0,0,0,0,0,0,0,0,0.49797,9.0493e-05,0,0.49797,0,0,0,45,0,0,0,0.96,1,0
0.019926,0,0,0,0,0,0,0,0,0,0,0,0,0.49811,4.5755e-05,0,0.49811,0,0,0,45,0,0,0,0.98,1,0
0,0,0,0,0,0,0,0,0,0,0,0,0,0.49815,-4.7773e-18,0,0.49815,0,0,0,45,0,0,0,1,1,0
