"Displacements:0","Displacements:1","Stress/Strain:0","Stress/Strain:1","Stress/Strain:2","Stress/Strain:3","Stress/Strain:4","Stress/Strain:5","Stress/Strain:6","Stress/Strain:7","Stress/Strain:8","Stress/Strain:9","Stress/Strain:10","Stress/Strain:11","Stress/Strain:12","Principal Stress:0","Principal Stress:1","Principal Stress:2","Principal Stress:3","Principal Stress:4","Principal Stress:5","Principal Stress:6","nodes:0","nodes:1","nodes:2"
0,0,0.0725998,0.0311142,0.0311142,0.0203982,0,0,0.107863,0,0,0.10607,0,0,0,0.080949,0.0227649,0.0311142,22.26,0.0449427,0.0544914,7.65655e-06,0,0,0
0.00215725,0.00212141,0.0521854,0.00370944,0.0167684,0.00809249,0,0,0.092084,-0.0339534,0,0.0420809,0,0,0,0.0535006,0.00239418,0.0167684,9.23148,0.0242211,0.0456495,3.30238e-06,0.02,0,0
0.00368336,0.00342345,0.0388081,0.00151131,0.0120958,0.00262521,0,0,0.0694518,-0.0275197,0,0.0136511,0,0,0,0.0389919,0.00132744,0.0120958,4.00655,0.0174717,0.0336004,1.29502e-06,0.04,0,0
0.00493532,0.00452955,0.0326135,-0.000158678,0.00973644,0.00156917,0,0,0.0594803,-0.0257273,0,0.0081597,0,0,0,0.0326884,-0.00023364,0.00973644,2.73506,0.0140637,0.0292409,7.98956e-07,0.06,0,0
0.00606257,0.00545672,0.0297539,-0.000349038,0.00882146,0.000958491,0,0,0.0544243,-0.0238433,0,0.00498415,0,0,0,0.0297844,-0.000379526,0.00882146,1.82186,0.0127421,0.0267765,6.07901e-07,0.08,0,0
0.0071123,0.00625632,0.0279433,-0.00042816,0.00825454,0.000659982,0,0,0.0511907,-0.022575,0,0.00343191,0,0,0,0.0279586,-0.000443504,0.00825454,1.33187,0.0119232,0.025205,5.04434e-07,0.1,0,0
0.0081102,0.00695104,0.0267194,-0.000430884,0.00788655,0.000475315,0,0,0.0489654,-0.0216253,0,0.00247164,0,0,0,0.0267277,-0.000439202,0.00788655,1.00266,0.0113917,0.0241075,4.40954e-07,0.12,0,0
0.00907091,0.00755701,0.0258337,-0.000418635,0.00762452,0.000355432,0,0,0.0473439,-0.0209122,0,0.00184824,0,0,0,0.0258385,-0.000423446,0.00762452,0.775541,0.0110132,0.0233046,3.98375e-07,0.14,0,0
0.010004,0.00808525,0.0251713,-0.00040063,0.00743121,0.000272126,0,0,0.0461243,-0.0203628,0,0.00141505,0,0,0,0.0251742,-0.000403525,0.00743121,0.609626,0.010734,0.0226982,3.68297e-07,0.16,0,0
0.0109159,0.0085439,0.0246644,-0.000381985,0.00728471,0.000211479,0,0,0.0451871,-0.0199334,0,0.00109969,0,0,0,0.0246661,-0.000383771,0.00728471,0.483731,0.0105224,0.0222308,3.46279e-07,0.18,0,0
0.0118114,0.00893908,0.0242723,-0.000364072,0.00717247,0.00016505,0,0,0.0444596,-0.019595,0,0.000858259,0,0,0,0.0242734,-0.000365178,0.00717247,0.383826,0.0103602,0.0218669,3.29827e-07,0.2,0,0
0.0126943,0.00927547,0.0239706,-0.000347178,0.00708702,0.000127424,0,0,0.0438973,-0.0193289,0,0.000662607,0,0,0,0.0239713,-0.000347846,0.00708702,0.300217,0.0102368,0.0215844,3.17489e-07,0.22,0,0
0.0135673,0.00955674,0.0237453,-0.000330978,0.00702431,9.48395e-05,0,0,0.0434747,-0.0191237,0,0.000493166,0,0,0,0.0237457,-0.000331352,0.00702431,0.22569,0.0101462,0.0213707,3.08435e-07,0.24,0,0
0.0144333,0.00978577,0.0235904,-0.000314833,0.00698266,6.45551e-05,0,0,0.04318,-0.0189735,0,0.000335687,0,0,0,0.0235905,-0.000315008,0.00698266,0.154724,0.0100861,0.0212197,3.02241e-07,0.26,0,0
0.0152945,0.00996496,0.0235052,-0.000297911,0.00696218,3.45446e-05,0,0,0.0430118,-0.0188762,0,0.000179632,0,0,0,0.0235052,-0.000297961,0.00696218,0.0831512,0.0100565,0.0211302,2.98765e-07,0.28,0,0
0.0161537,0.0100965,0.0234935,-0.000279265,0.00696426,3.37052e-06,0,0,0.042976,-0.0188332,0,1.75267e-05,0,0,0,0.0234935,-0.000279266,0.00696426,0.00812344,0.0100595,0.0211048,2.98075e-07,0.3,0,0
0.0170136,0.0101824,0.0235619,-0.000257914,0.00699119,-2.98324e-05,0,0,0.0430838,-0.0188477,0,-0.000155128,0,0,0,0.0235619,-0.000257951,0.00699119,-0.0717582,0.0100984,0.0211486,3.00395e-07,0.32,0,0
0.0178771,0.0102252,0.0237183,-0.000232914,0.00704561,-6.5311e-05,0,0,0.0433489,-0.0189242,0,-0.000339617,0,0,0,0.0237184,-0.000233093,0.00704561,-0.156235,0.010177,0.0212678,3.06066e-07,0.34,0,0
0.0187475,0.0102277,0.0239702,-0.000203486,0.00713002,-0.000102616,0,0,0.0437845,-0.0190671,0,-0.000533602,0,0,0,0.0239706,-0.000203922,0.00713002,-0.243211,0.0102989,0.0214686,3.15499e-07,0.36,0,0
0.0196285,0.0101936,0.0243228,-0.000169159,0.00724609,-0.000140512,0,0,0.0443994,-0.0192796,0,-0.000730665,0,0,0,0.0243236,-0.000169965,0.00724609,-0.328696,0.0104666,0.0217552,3.29117e-07,0.38,0,0
0.0205235,0.0101277,0.0247763,-0.000129968,0.00739391,-0.000176921,0,0,0.0451943,-0.0195621,0,-0.00091999,0,0,0,0.0247776,-0.000131225,0.00739391,-0.406971,0.0106801,0.0221277,3.47274e-07,0.4,0,0
0.0214362,0.010036,0.025324,-8.6597e-05,0.00757122,-0.000208941,0,0,0.0461572,-0.0199103,0,-0.00108649,0,0,0,0.0253257,-8.83149e-05,0.00757122,-0.471077,0.0109362,0.0225805,3.70124e-07,0.42,0,0
0.0223698,0.00992583,0.0259494,-4.03851e-05,0.00777271,-0.000233087,0,0,0.0472594,-0.020314,0,-0.00121205,0,0,0,0.0259515,-4.24753e-05,0.00777271,-0.513797,0.0112272,0.0231001,3.97462e-07,0.44,0,0
0.0233266,0.00980568,0.0266261,6.92148e-06,0.0079899,-0.000245844,0,0,0.0484541,-0.0207557,0,-0.00127839,0,0,0,0.0266283,4.65116e-06,0.0079899,-0.5291,0.011541,0.0236641,4.28548e-07,0.46,0,0
0.024308,0.00968508,0.0273184,5.35455e-05,0.00821157,-0.000244547,0,0,0.0496777,-0.0212109,0,-0.00127165,0,0,0,0.0273206,5.13523e-05,0.00821157,-0.51385,0.0118612,0.024242,4.61997e-07,0.48,0,0
0.0253137,0.00957389,0.0279854,9.79222e-05,0.00842499,-0.000228292,0,0,0.050857,-0.0216504,0,-0.00118712,0,0,0,0.0279873,9.60534e-05,0.00842499,-0.468992,0.0121694,0.0247989,4.95818e-07,0.5,0,0
0.0263422,0.0094816,0.0285867,0.000138524,0.00861756,-0.000198396,0,0,0.0519197,-0.0220455,0,-0.00103166,0,0,0,0.0285881,0.00013714,0.00861756,-0.399553,0.0124476,0.0253001,5.27657e-07,0.52,0,0
0.0273905,0.00941667,0.0290878,0.00017344,0.00877836,-0.000157963,0,0,0.0528045,-0.0223728,0,-0.00082141,0,0,0,0.0290886,0.000172577,0.00877836,-0.313003,0.0126799,0.0257168,5.55174e-07,0.54,0,0
0.0284544,0.00938587,0.0294637,0.000200244,0.0088992,-0.000110752,0,0,0.0534678,-0.0226173,0,-0.000575911,0,0,0,0.0294642,0.000199825,0.0088992,-0.21684,0.0128544,0.0260288,5.76419e-07,0.56,0,0
0.0295292,0.00939399,0.0296995,0.000216494,0.0089748,-5.99876e-05,0,0,0.0538843,-0.0227716,0,-0.000311935,0,0,0,0.0296996,0.000216372,0.0089748,-0.116576,0.0129636,0.0262249,5.90025e-07,0.58,0,0
0.0306098,0.00944376,0.029788,0.000220636,0.0090026,-7.94716e-06,0,0,0.0540421,-0.0228331,0,-4.13252e-05,0,0,0,0.029788,0.000220633,0.0090026,-0.0154,0.0130038,0.0263001,5.9523e-07,0.6,0,0
0.0316909,0.00953583,0.0297285,0.00021269,0.00898235,4.35572e-05,0,0,0.0539399,-0.0228011,0,0.000226497,0,0,0,0.0297286,0.000212626,0.00898235,0.0845526,0.0129745,0.0262536,5.91836e-07,0.62,0,0
0.0327674,0.00966879,0.0295262,0.000194241,0.00891614,9.22517e-05,0,0,0.0535862,-0.0226769,0,0.000479709,0,0,0,0.0295265,0.000193951,0.00891614,0.180198,0.0128789,0.0260889,5.80223e-07,0.64,0,0
0.0338343,0.00983914,0.0291946,0.000167748,0.00880872,0.000134929,0,0,0.0530034,-0.0224665,0,0.000701628,0,0,0,0.0291953,0.000167121,0.00880872,0.266326,0.0127237,0.0258159,5.6143e-07,0.66,0,0
0.0348875,0.0100414,0.0287569,0.000135642,0.00866775,0.000167872,0,0,0.0522317,-0.0221835,0,0.000872933,0,0,0,0.0287579,0.000134657,0.00866775,0.336041,0.0125201,0.025453,5.37182e-07,0.68,0,0
0.0359236,0.0102686,0.0282454,9.98329e-05,0.00850358,0.000188046,0,0,0.0513288,-0.0218497,0,0.000977841,0,0,0,0.0282467,9.85766e-05,0.00850358,0.382782,0.0122829,0.0250275,5.09702e-07,0.7,0,0
0.0369407,0.0105125,0.0276987,6.18637e-05,0.00832816,0.000194214,0,0,0.0503634,-0.0214924,0,0.00100991,0,0,0,0.0277,6.0499e-05,0.00832816,0.402611,0.0120296,0.024572,4.81359e-07,0.72,0,0
0.0379382,0.0107647,0.0271552,2.33295e-05,0.00815356,0.000187348,0,0,0.0494043,-0.0211386,0,0.000974209,0,0,0,0.0271565,2.20359e-05,0.00815356,0.395607,0.0117774,0.0241196,4.54246e-07,0.74,0,0
0.0389168,0.0110171,0.0266482,-1.39529e-05,0.00799028,0.000170158,0,0,0.0485106,-0.020811,0,0.000884824,0,0,0,0.0266493,-1.50388e-05,0.00799028,0.365643,0.0115415,0.0236984,4.29901e-07,0.76,0,0
0.0398786,0.0112626,0.0262018,-4.81971e-05,0.00784607,0.000146196,0,0,0.0477248,-0.0205251,0,0.000760219,0,0,0,0.0262026,-4.90113e-05,0.00784607,0.319089,0.0113332,0.0233285,4.09213e-07,0.78,0,0
0.0408258,0.0114955,0.0258296,-7.80236e-05,0.00772548,0.00011899,0,0,0.0470708,-0.0202891,0,0.000618749,0,0,0,0.0258302,-7.85701e-05,0.00772548,0.263144,0.011159,0.0230211,3.925e-07,0.8,0,0
0.0417614,0.0117112,0.0255361,-0.000102701,0.00763001,9.15353e-05,0,0,0.0465557,-0.020105,0,0.000475984,0,0,0,0.0255364,-0.000103028,0.00763001,0.204553,0.0110211,0.0227796,3.79659e-07,0.82,0,0
0.0426881,0.0119066,0.0253179,-0.00012213,0.00755874,6.60794e-05,0,0,0.0461739,-0.0199703,0,0.000343613,0,0,0,0.0253181,-0.000122302,0.00755874,0.148822,0.0109182,0.022601,3.70318e-07,0.84,0,0
0.0436084,0.0120797,0.0251668,-0.00013669,0.00750903,4.41215e-05,0,0,0.0459102,-0.0198789,0,0.000229432,0,0,0,0.0251669,-0.000136767,0.00750903,0.0999057,0.0108464,0.0224781,3.63954e-07,0.86,0,0
0.0445245,0.0122295,0.0250712,-0.000147045,0.00747725,2.64868e-05,0,0,0.0457443,-0.0198232,0,0.000137731,0,0,0,0.0250712,-0.000147073,0.00747725,0.0601778,0.0108005,0.0224014,3.59983e-07,0.88,0,0
0.0454381,0.0123554,0.0250183,-0.00015399,0.00745929,1.34345e-05,0,0,0.0456534,-0.0197945,0,6.98592e-05,0,0,0,0.0250183,-0.000153997,0.00745929,0.0305788,0.0107745,0.0223598,3.57816e-07,0.9,0,0
0.0463506,0.0124577,0.0249953,-0.000158336,0.00745108,4.76906e-06,0,0,0.0456149,-0.0197845,0,2.47991e-05,0,0,0,0.0249953,-0.000158337,0.00745108,0.0108631,0.0107627,0.0223428,3.56897e-07,0.92,0,0
0.0472627,0.0125365,0.0249905,-0.00016084,0.00744891,-4.94171e-08,0,0,0.0456082,-0.0197854,0,-2.56969e-07,0,0,0,0.0249905,-0.00016084,0.00744891,-0.000112574,0.0107595,0.0223407,3.56733e-07,0.94,0,0
0.0481749,0.0125924,0.0249945,-0.000162139,0.0074497,-1.80527e-06,0,0,0.0456164,-0.0197908,0,-9.38741e-06,0,0,0,0.0249945,-0.000162139,0.0074497,-0.00411162,0.0107607,0.0223452,3.5692e-07,0.96,0,0
0.0490874,0.0126258,0.0249998,-0.000162718,0.00745112,-1.44283e-06,0,0,0.0456265,-0.019796,0,-7.5027e-06,0,0,0,0.0249998,-0.000162718,0.00745112,-0.00328536,0.0107627,0.0223504,3.57155e-07,0.98,0,0
0.05,0.0126369,0.025002,-0.000162877,0.00745175,0.00010659,0,0,0.0456308,-0.019798,0,0.000554266,0,0,0,0.0250025,-0.000163328,0.00745175,0.242678,0.0107636,0.0223533,3.57281e-07,1,0,0
0,0,0.0433174,0.0185646,0.0185646,0.0138686,0,0,0.0643573,-1.73472e-18,0,0.072117,0,0,0,0.049529,0.012353,0.0185646,24.1271,0.0268155,0.0344923,1.87928e-06,0,0.02,0
0.00128715,0.00144234,0.0394722,0.00388656,0.0130076,0.00871039,0,0,0.0688078,-0.0237148,0,0.045294,0,0,0,0.0414898,0.00186889,0.0130076,13.0419,0.0187888,0.0353916,1.53964e-06,0.02,0.02,0
0.00275231,0.00287305,0.0396978,0.00305337,0.0128254,0.00566976,0,0,0.0698684,-0.0254072,0,0.0294828,0,0,0,0.040555,0.00219618,0.0128254,8.59727,0.0185255,0.0343024,1.42174e-06,0.04,0.02,0
0.00408188,0.004015,0.0356712,0.0016124,0.0111851,0.00339152,0,0,0.0636639,-0.024889,0,0.0176359,0,0,0,0.0360056,0.00127797,0.0111851,5.63173,0.0161562,0.0309857,1.01793e-06,0.06,0.02,0
0.00529887,0.00497986,0.0327074,0.000936074,0.010093,0.00225681,0,0,0.0587973,-0.0238081,0,0.0117354,0,0,0,0.0328669,0.000776566,0.010093,4.04284,0.0145788,0.028594,7.85086e-07,0.08,0.02,0
0.00643377,0.00580482,0.0306108,0.000578408,0.00935676,0.00157855,0,0,0.0552605,-0.0228237,0,0.00820845,0,0,0,0.0306935,0.000495665,0.00935676,3.00053,0.0135153,0.0268858,6.44881e-07,0.1,0.02,0
0.00750929,0.00651854,0.0291055,0.000380913,0.00884593,0.00115433,0,0,0.052675,-0.0220091,0,0.00600253,0,0,0,0.0291518,0.000334599,0.00884593,2.29756,0.0127775,0.0256438,5.554e-07,0.12,0.02,0
0.00854077,0.00713877,0.0279911,0.000263613,0.0084764,0.000869832,0,0,0.0507381,-0.0213533,0,0.00452313,0,0,0,0.0280183,0.000236352,0.0084764,1.79506,0.0122437,0.0247146,4.9476e-07,0.14,0.02,0
0.00953881,0.007678,0.0271447,0.000190451,0.00820055,0.00066989,0,0,0.0492548,-0.0208262,0,0.00348343,0,0,0,0.0271613,0.000173812,0.00820055,1.42279,0.0118452,0.0240028,4.51744e-07,0.16,0.02,0
0.010511,0.00814523,0.0264902,0.000143508,0.00799011,0.000522993,0,0,0.0481002,-0.0204012,0,0.00271956,0,0,0,0.0265006,0.000133131,0.00799011,1.13675,0.0115413,0.0234479,4.20199e-07,0.18,0.02,0
0.0114628,0.00854718,0.0259789,0.000113353,0.00782767,0.000410104,0,0,0.0471931,-0.0200572,0,0.00213254,0,0,0,0.0259854,0.000106852,0.00782767,0.908133,0.0113066,0.023011,3.96559e-07,0.2,0.02,0
0.0123987,0.0088889,0.0255794,9.46711e-05,0.00770223,0.000318736,0,0,0.0464807,-0.0197797,0,0.00165743,0,0,0,0.0255834,9.06853e-05,0.00770223,0.716445,0.0111254,0.0226666,3.78673e-07,0.22,0.02,0
0.0133221,0.00917426,0.0252719,8.42525e-05,0.00760686,0.000240201,0,0,0.0459292,-0.0195588,0,0.00124905,0,0,0,0.0252742,8.19621e-05,0.00760686,0.546333,0.0109877,0.0223988,3.65228e-07,0.24,0.02,0
0.0142359,0.0094063,0.0250443,7.99588e-05,0.00753728,0.00016818,0,0,0.0455183,-0.019389,0,0.000874537,0,0,0,0.0250454,7.88259e-05,0.00753728,0.385968,0.0108872,0.0221979,3.55436e-07,0.26,0.02,0
0.0151428,0.00958743,0.0248901,8.01563e-05,0.00749108,9.80219e-05,0,0,0.0452375,-0.0192684,0,0.000509714,0,0,0,0.0248905,7.9769e-05,0.00749108,0.226366,0.0108204,0.0220595,3.48858e-07,0.28,0.02,0
0.0160454,0.00971979,0.0248068,8.33786e-05,0.00746707,2.64423e-05,0,0,0.0450834,-0.0191976,0,0.0001375,0,0,0,0.0248069,8.33503e-05,0.00746707,0.061279,0.0107858,0.0219823,3.45296e-07,0.3,0.02,0
0.0169461,0.00980544,0.0247946,8.81261e-05,0.00746481,-4.85393e-05,0,0,0.0450574,-0.0191794,0,-0.000252405,0,0,0,0.0247947,8.80307e-05,0.00746481,-0.112565,0.0107825,0.0219677,3.44716e-07,0.32,0.02,0
0.0178477,0.00984668,0.0248546,9.27582e-05,0.00748421,-0.000127528,0,0,0.045163,-0.0192178,0,-0.000663145,0,0,0,0.0248553,9.21014e-05,0.00748421,-0.295073,0.0108105,0.0220183,3.47191e-07,0.34,0.02,0
0.0187526,0.00984632,0.0249882,9.54554e-05,0.00752508,-0.000209615,0,0,0.045404,-0.019317,0,-0.00109,0,0,0,0.0249899,9.36905e-05,0.00752508,-0.482427,0.0108696,0.0221367,3.52847e-07,0.36,0.02,0
0.0196638,0.009808,0.0251949,9.42308e-05,0.00758675,-0.00029223,0,0,0.0457813,-0.0194806,0,-0.0015196,0,0,0,0.0251983,9.0829e-05,0.00758675,-0.666935,0.0109586,0.0223243,3.61806e-07,0.38,0.02,0
0.0205839,0.00973648,0.0254718,8.70286e-05,0.00766766,-0.000371047,0,0,0.0462909,-0.0197096,0,-0.00192945,0,0,0,0.0254773,8.16062e-05,0.00766766,-0.837248,0.0110755,0.0225795,3.74117e-07,0.4,0.02,0
0.0215154,0.00963782,0.0258115,7.19878e-05,0.00776505,-0.000440057,0,0,0.0469208,-0.020002,0,-0.0022883,0,0,0,0.025819,6.44665e-05,0.00776505,-0.979179,0.0112162,0.022897,3.89673e-07,0.42,0.02,0
0.0224607,0.00951955,0.0262014,4.8068e-05,0.00787485,-0.000492025,0,0,0.0476491,-0.0203496,0,-0.00255853,0,0,0,0.0262107,3.88148e-05,0.00787485,-1.0774,0.0113748,0.0232656,4.08123e-07,0.44,0.02,0
0.0234214,0.00939057,0.0266236,1.59676e-05,0.00799187,-0.000519626,0,0,0.0484425,-0.0207373,0,-0.00270205,0,0,0,0.0266337,5.82359e-06,0.00799187,-1.11837,0.0115438,0.0236679,4.28788e-07,0.46,0.02,0
0.0243984,0.00926087,0.0270555,-2.10723e-05,0.00811034,-0.00051726,0,0,0.0492575,-0.0211417,0,-0.00268975,0,0,0,0.0270654,-3.09502e-05,0.00811034,-1.09402,0.0117149,0.024081,4.50633e-07,0.48,0.02,0
0.0253917,0.00914088,0.0274724,-5.75769e-05,0.00822445,-0.000483086,0,0,0.0500447,-0.0215333,0,-0.00251205,0,0,0,0.0274809,-6.60513e-05,0.00822445,-1.00499,0.0118798,0.0244783,4.72341e-07,0.5,0.02,0
0.0264002,0.00904069,0.0278502,-8.77626e-05,0.00832872,-0.000420033,0,0,0.0507558,-0.0218829,0,-0.00218417,0,0,0,0.0278565,-9.40761e-05,0.00832872,-0.861155,0.0120304,0.0248346,4.92483e-07,0.52,0.02,0
0.0274219,0.00896922,0.0281683,-0.000108241,0.00841801,-0.00033494,0,0,0.0513507,-0.0221683,0,-0.00174169,0,0,0,0.0281723,-0.000112208,0.00841801,-0.678551,0.0121594,0.0251297,5.09749e-07,0.54,0.02,0
0.0284542,0.00893352,0.0284116,-0.000119404,0.00848765,-0.000235933,0,0,0.0518022,-0.0223783,0,-0.00122685,0,0,0,0.0284135,-0.000121355,0.00848765,-0.473756,0.0122599,0.0253515,5.23118e-07,0.56,0.02,0
0.029494,0.00893856,0.0285704,-0.000124189,0.00853385,-0.00012981,0,0,0.0520949,-0.0225109,0,-0.00067501,0,0,0,0.028571,-0.000124777,0.00853385,-0.25919,0.0123267,0.0254941,5.31916e-07,0.58,0.02,0
0.030538,0.0089871,0.0286398,-0.000125206,0.00855439,-2.10765e-05,0,0,0.0522222,-0.0225669,0,-0.000109598,0,0,0,0.0286399,-0.000125222,0.00855439,-0.0419812,0.0123563,0.0255557,5.35776e-07,0.6,0.02,0
0.0315829,0.00907981,0.0286191,-0.000122453,0.00854898,8.68242e-05,0,0,0.0521822,-0.0225457,0,0.000451486,0,0,0,0.0286193,-0.000122715,0.00854898,0.173081,0.0123485,0.0255355,5.34577e-07,0.62,0.02,0
0.0326253,0.00921525,0.0285111,-0.000113333,0.00851932,0.000189392,0,0,0.0519785,-0.0224449,0,0.00098484,0,0,0,0.0285123,-0.000114586,0.00851932,0.379074,0.0123057,0.0254339,5.28452e-07,0.64,0.02,0
0.0336621,0.00938981,0.0283236,-9.49636e-05,0.0084686,0.000279865,0,0,0.0516231,-0.0222653,0,0.0014553,0,0,0,0.0283264,-9.77194e-05,0.0084686,0.564174,0.0122324,0.0252551,5.17868e-07,0.66,0.02,0
0.0346902,0.00959777,0.02807,-6.70341e-05,0.00840089,0.00035021,0,0,0.0511397,-0.0220166,0,0.00182109,0,0,0,0.0280744,-7.13923e-05,0.00840089,0.712989,0.0121346,0.0250101,5.03683e-07,0.68,0.02,0
0.0357076,0.00983161,0.0277687,-3.29962e-05,0.0083207,0.000393742,0,0,0.0505647,-0.0217196,0,0.00204746,0,0,0,0.0277743,-3.85715e-05,0.0083207,0.811236,0.0120188,0.0247171,4.87103e-07,0.7,0.02,0
0.0367128,0.0100827,0.0274416,1.36244e-06,0.00823288,0.000407715,0,0,0.0499426,-0.0214019,0,0.00212012,0,0,0,0.0274476,-4.69416e-06,0.00823288,0.851067,0.0118919,0.0243997,4.69507e-07,0.72,0.02,0
0.0377053,0.0103419,0.0271111,3.06185e-05,0.00814252,0.000394132,0,0,0.0493184,-0.021091,0,0.00204949,0,0,0,0.0271169,2.48834e-05,0.00814252,0.833653,0.0117614,0.0240821,4.52208e-07,0.74,0.02,0
0.0386856,0.0106009,0.0267974,5.15866e-05,0.00805469,0.000358715,0,0,0.048731,-0.0208081,0,0.00186532,0,0,0,0.0268022,4.67764e-05,0.00805469,0.768266,0.0116346,0.023785,4.36259e-07,0.76,0.02,0
0.0396546,0.0108521,0.0265157,6.35687e-05,0.00797378,0.000308883,0,0,0.048209,-0.0205666,0,0.00160619,0,0,0,0.0265193,5.99623e-05,0.00797378,0.668925,0.0115177,0.023523,4.22355e-07,0.78,0.02,0
0.0406139,0.0110897,0.0262758,6.75167e-05,0.00790299,0.00025201,0,0,0.0477693,-0.0203722,0,0.00131045,0,0,0,0.0262782,6.50937e-05,0.00790299,0.55087,0.0114154,0.0233046,4.10844e-07,0.8,0.02,0
0.0415654,0.0113091,0.0260819,6.51175e-05,0.00784411,0.000194355,0,0,0.0474183,-0.0202254,0,0.00101065,0,0,0,0.0260834,6.36657e-05,0.00784411,0.427989,0.0113304,0.0231325,4.01788e-07,0.82,0.02,0
0.0425107,0.0115072,0.0259337,5.81897e-05,0.00779756,0.000140675,0,0,0.0471539,-0.0201224,0,0.000731509,0,0,0,0.0259345,5.7425e-05,0.00779756,0.311482,0.0112631,0.0230052,3.95043e-07,0.84,0.02,0
0.0434515,0.0116821,0.0258273,4.84405e-05,0.00776273,9.41928e-05,0,0,0.046968,-0.0200572,0,0.000489802,0,0,0,0.0258277,4.80964e-05,0.00776273,0.209348,0.0112128,0.0229177,3.90332e-07,0.86,0.02,0
0.0443894,0.011833,0.0257567,3.73682e-05,0.00773821,5.67351e-05,0,0,0.046848,-0.0200222,0,0.000295022,0,0,0,0.0257568,3.72431e-05,0.00773821,0.12639,0.0111774,0.0228634,3.873e-07,0.88,0.02,0
0.0453254,0.0119595,0.0257143,2.62271e-05,0.00772215,2.89248e-05,0,0,0.0467795,-0.0200094,0,0.000150409,0,0,0,0.0257143,2.61945e-05,0.00772215,0.0645151,0.0111542,0.0228344,3.85564e-07,0.9,0.02,0
0.0462606,0.012062,0.0256925,1.60063e-05,0.00771254,1.04045e-05,0,0,0.0467478,-0.020011,0,5.41036e-05,0,0,0,0.0256925,1.60021e-05,0.00771254,0.0232172,0.0111403,0.0228232,3.84747e-07,0.92,0.02,0
0.0471953,0.0121408,0.025684,7.43551e-06,0.00770743,6.42084e-08,0,0,0.0467391,-0.02002,0,3.33884e-07,0,0,0,0.025684,7.43551e-06,0.00770743,0.000143277,0.011133,0.0228225,3.84504e-07,0.94,0.02,0
0.0481301,0.0121966,0.0256827,1.01338e-06,0.00770511,-3.74501e-06,0,0,0.0467417,-0.0200307,0,-1.94741e-05,0,0,0,0.0256827,1.01283e-06,0.00770511,-0.00835511,0.0111296,0.0228265,3.84549e-07,0.96,0.02,0
0.049065,0.0122299,0.0256839,-2.94953e-06,0.00770427,-3.02805e-06,0,0,0.0467469,-0.0200388,0,-1.57459e-05,0,0,0,0.0256839,-2.94989e-06,0.00770427,-0.00675424,0.0111284,0.0228307,3.84665e-07,0.98,0.02,0
0.05,0.0122409,0.0256846,-4.28766e-06,0.00770409,0.000106193,0,0,0.0467493,-0.0200418,0,0.000552205,0,0,0,0.025685,-4.72664e-06,0.00770409,0.236845,0.0111281,0.0228331,3.84745e-07,1,0.02,0
0,0,0.0368832,0.0158071,0.0158071,0.0112771,0,0,0.0547979,0,0,0.0586409,0,0,0,0.0417796,0.0109106,0.0158071,23.4701,0.0228325,0.0287354,1.10031e-06,0,0.04,0
0.00109596,0.00117282,0.0355193,0.00948061,0.0135,0.0101798,0,0,0.0572503,-0.0104503,0,0.0529348,0,0,0,0.0390266,0.00597328,0.0135,19.0108,0.0195,0.0300065,1.09883e-06,0.02,0.04,0
0.00229001,0.00240716,0.0354535,0.00458374,0.0120112,0.00809728,0,0,0.06095,-0.0193113,0,0.0421059,0,0,0,0.0374485,0.00258872,0.0120112,13.841,0.0173495,0.0312334,1.09811e-06,0.04,0.04,0
0.00353396,0.00353399,0.0349146,0.00287254,0.0113362,0.00589529,0,0,0.0613041,-0.0220054,0,0.0306555,0,0,0,0.0359649,0.00182231,0.0113362,10.1011,0.0163744,0.0305188,9.95894e-07,0.06,0.04,0
0.00474217,0.0045044,0.033304,0.00181206,0.0105348,0.00421743,0,0,0.0591999,-0.0226792,0,0.0219306,0,0,0,0.033859,0.00125704,0.0105348,7.49713,0.015217,0.0290945,8.44852e-07,0.08,0.04,0
0.00590195,0.00534337,0.0317528,0.0011995,0.0098857,0.00309593,0,0,0.0568545,-0.0225841,0,0.0160988,0,0,0,0.0320634,0.000888948,0.0098857,5.72813,0.0142793,0.0277906,7.25451e-07,0.1,0.04,0
0.00701635,0.00607068,0.0304415,0.000824306,0.00937975,0.00232633,0,0,0.0547606,-0.0222442,0,0.0120969,0,0,0,0.0306231,0.000642694,0.00937975,4.46391,0.0135485,0.0267062,6.3695e-07,0.12,0.04,0
0.00809238,0.00670288,0.029379,0.000587072,0.00898982,0.00178579,0,0,0.0530118,-0.0218471,0,0.00928609,0,0,0,0.0294893,0.000476733,0.00898982,3.53565,0.0129853,0.0258305,5.71907e-07,0.14,0.04,0
0.00913683,0.0072522,0.0285247,0.000432431,0.00868715,0.00139353,0,0,0.0515777,-0.0214623,0,0.00724638,0,0,0,0.0285937,0.000363473,0.00868715,2.83292,0.0125481,0.0251247,5.23386e-07,0.16,0.04,0
0.0101555,0.00772786,0.0278372,0.000330016,0.00845017,0.00109947,0,0,0.0504063,-0.0211124,0,0.00571725,0,0,0,0.0278811,0.000286139,0.00845017,2.28527,0.0122058,0.0245529,4.86544e-07,0.18,0.04,0
0.0111531,0.00813679,0.0272827,0.00026242,0.00826354,0.000870783,0,0,0.0494499,-0.0208029,0,0.00452807,0,0,0,0.0273108,0.000234387,0.00826354,1.84392,0.0119362,0.0240873,4.58141e-07,0.2,0.04,0
0.0121335,0.00848429,0.0268359,0.000219261,0.00811655,0.000685081,0,0,0.0486703,-0.0205329,0,0.00356242,0,0,0,0.0268535,0.00020164,0.00811655,1.47343,0.0117239,0.023707,4.36028e-07,0.22,0.04,0
0.0130999,0.00877439,0.0264785,0.000193987,0.00800176,0.000526389,0,0,0.0480396,-0.0203002,0,0.00273722,0,0,0,0.0264891,0.00018345,0.00800176,1.14682,0.0115581,0.0233976,4.18782e-07,0.24,0.04,0
0.0140551,0.0090102,0.026198,0.000182099,0.00791402,0.000382944,0,0,0.0475383,-0.020103,0,0.00199131,0,0,0,0.0262036,0.000176463,0.00791402,0.84313,0.0114314,0.0231494,4.05473e-07,0.26,0.04,0
0.0150014,0.00919422,0.0259858,0.00018009,0.00784978,0.00024604,0,0,0.0471538,-0.0199412,0,0.00127941,0,0,0,0.0259882,0.000177745,0.00784978,0.546209,0.0113386,0.0229569,3.9551e-07,0.28,0.04,0
0.0159412,0.00932855,0.025837,0.000184792,0.00780653,0.000109497,0,0,0.0468792,-0.0198165,0,0.000569382,0,0,0,0.0258374,0.000184325,0.00780653,0.244561,0.0112761,0.0228177,3.88542e-07,0.3,0.04,0
0.0168766,0.00941522,0.0257484,0.000192967,0.0077824,-3.04672e-05,0,0,0.0467115,-0.0197325,0,-0.00015843,0,0,0,0.0257484,0.000192931,0.0077824,-0.0683081,0.0112412,0.0227317,3.84387e-07,0.32,0.04,0
0.0178097,0.00945645,0.0257182,0.000201108,0.0077758,-0.000175149,0,0,0.0466503,-0.0196942,0,-0.000910773,0,0,0,0.0257194,0.000199906,0.0077758,-0.393252,0.0112317,0.0227004,3.82973e-07,0.34,0.04,0
0.0187426,0.00945498,0.0257451,0.00020539,0.00778514,-0.00032319,0,0,0.0466959,-0.0197074,0,-0.00168059,0,0,0,0.0257492,0.000201301,0.00778514,-0.72489,0.0112452,0.0227257,3.84285e-07,0.36,0.04,0
0.0196775,0.00941437,0.025827,0.000201753,0.00780862,-0.000470422,0,0,0.0468477,-0.0197778,0,-0.00244619,0,0,0,0.0258356,0.00019312,0.00780862,-1.05135,0.0112791,0.022809,3.88313e-07,0.38,0.04,0
0.0206165,0.00933934,0.0259605,0.000186017,0.00784396,-0.000609807,0,0,0.047103,-0.0199106,0,-0.003171,0,0,0,0.0259749,0.000171598,0.00784396,-1.35457,0.0113302,0.02295,3.95005e-07,0.4,0.04,0
0.0215616,0.00923595,0.0261402,0.000154328,0.00788836,-0.000731535,0,0,0.0474548,-0.0201085,0,-0.00380398,0,0,0,0.0261608,0.000133751,0.00788836,-1.61125,0.0113943,0.0231454,4.04204e-07,0.42,0.04,0
0.0225147,0.00911184,0.0263575,0.000104124,0.00793848,-0.000823648,0,0,0.0478894,-0.0203693,0,-0.00428297,0,0,0,0.0263833,7.8309e-05,0.00793848,-1.79519,0.0114667,0.0233874,4.15571e-07,0.44,0.04,0
0.0234772,0.00897619,0.0266001,3.62915e-05,0.00799092,-0.000873609,0,0,0.0483839,-0.020682,0,-0.00454277,0,0,0,0.0266288,7.59194e-06,0.00799092,-1.88159,0.0115424,0.0236621,4.28519e-07,0.46,0.04,0
0.0244501,0.00883942,0.0268526,-4.26582e-05,0.00804297,-0.000871544,0,0,0.0489049,-0.0210226,0,-0.00453203,0,0,0,0.0268808,-7.08712e-05,0.00804297,-1.85409,0.0116176,0.0239488,4.42177e-07,0.48,0.04,0
0.0254334,0.00871255,0.0270978,-0.000120399,0.00809321,-0.000814108,0,0,0.0494118,-0.0213554,0,-0.00423336,0,0,0,0.0271221,-0.000144727,0.00809321,-1.7117,0.0116902,0.0242223,4.55494e-07,0.5,0.04,0
0.0264265,0.00860629,0.0273198,-0.000183275,0.00814097,-0.000707156,0,0,0.0498651,-0.021643,0,-0.00367721,0,0,0,0.027338,-0.000201445,0.00814097,-1.47188,0.0117592,0.0244596,4.67457e-07,0.52,0.04,0
0.027428,0.00852994,0.0275068,-0.000223517,0.00818499,-0.000563969,0,0,0.0502367,-0.0218621,0,-0.00293264,0,0,0,0.0275183,-0.000234982,0.00818499,-1.16462,0.0118228,0.0246467,4.7735e-07,0.54,0.04,0
0.028436,0.00849073,0.0276517,-0.000243119,0.00822259,-0.000399868,0,0,0.0505158,-0.0220108,0,-0.00207932,0,0,0,0.0276575,-0.00024885,0.00822259,-0.821101,0.0118771,0.0247815,4.84862e-07,0.56,0.04,0
0.0294486,0.00849355,0.0277518,-0.000250545,0.00825037,-0.000226321,0,0,0.0507037,-0.0221024,0,-0.00117687,0,0,0,0.0277536,-0.000252374,0.00825037,-0.463038,0.0119172,0.0248697,4.89985e-07,0.58,0.04,0
0.0304641,0.00854108,0.027806,-0.000252946,0.00826592,-4.92738e-05,0,0,0.0508042,-0.0221491,0,-0.000256224,0,0,0,0.0278061,-0.000253032,0.00826592,-0.100616,0.0119397,0.0249169,4.92774e-07,0.6,0.04,0
0.0314808,0.008634,0.0278135,-0.000250305,0.00826896,0.000127933,0,0,0.0508158,-0.0221501,0,0.000665254,0,0,0,0.0278141,-0.000250889,0.00826896,0.261185,0.011944,0.0249223,4.93157e-07,0.62,0.04,0
0.0324968,0.00877099,0.0277732,-0.000235486,0.00826131,0.00029935,0,0,0.0507309,-0.0220917,0,0.00155662,0,0,0,0.0277764,-0.000238685,0.00826131,0.612269,0.011933,0.024879,4.90936e-07,0.64,0.04,0
0.03351,0.00894853,0.027686,-0.000200145,0.00824576,0.000453551,0,0,0.0505446,-0.0219594,0,0.00235846,0,0,0,0.0276934,-0.00020752,0.00824576,0.931551,0.0119105,0.0247803,4.85989e-07,0.66,0.04,0
0.0345186,0.00916077,0.0275569,-0.000142494,0.00822433,0.000575375,0,0,0.0502648,-0.0217538,0,0.00299195,0,0,0,0.0275689,-0.00015444,0.00822433,1.18947,0.0118796,0.0246272,4.78512e-07,0.68,0.04,0
0.0355206,0.00939982,0.0273959,-7.04742e-05,0.00819763,0.000651842,0,0,0.0499155,-0.0214971,0,0.00338958,0,0,0,0.0274114,-8.59352e-05,0.00819763,1.35875,0.011841,0.0244324,4.6913e-07,0.7,0.04,0
0.0365152,0.00965642,0.0272165,2.24006e-06,0.00816563,0.000677466,0,0,0.0495323,-0.0212248,0,0.00352282,0,0,0,0.0272334,-1.46142e-05,0.00816563,1.42513,0.0117948,0.0242172,4.58778e-07,0.72,0.04,0
0.0375019,0.00992103,0.0270335,6.34502e-05,0.0081291,0.000655928,0,0,0.0491515,-0.0209707,0,0.00341083,0,0,0,0.0270495,4.75071e-05,0.0081291,1.39237,0.011742,0.0240042,4.4844e-07,0.74,0.04,0
0.0384812,0.0101848,0.02686,0.000106779,0.00809002,0.000597358,0,0,0.0488018,-0.0207564,0,0.00310626,0,0,0,0.0268733,9.34476e-05,0.00809002,1.27848,0.0116856,0.0238109,4.38917e-07,0.76,0.04,0
0.039454,0.0104399,0.0267053,0.000131329,0.00805098,0.000514514,0,0,0.0485011,-0.0205911,0,0.00267547,0,0,0,0.0267152,0.000121371,0.00805098,1.10878,0.0116292,0.0236481,4.30718e-07,0.78,0.04,0
0.0404213,0.0106806,0.0265751,0.000139435,0.00801437,0.000419676,0,0,0.048258,-0.0204748,0,0.00218232,0,0,0,0.0265818,0.000132774,0.00801437,0.909285,0.0115763,0.0235204,4.24089e-07,0.8,0.04,0
0.0413843,0.0109022,0.0264719,0.000134536,0.00798193,0.000323222,0,0,0.0480739,-0.0204032,0,0.00168075,0,0,0,0.0264759,0.00013057,0.00798193,0.703014,0.0115295,0.023428,4.19068e-07,0.82,0.04,0
0.0423442,0.0111017,0.0263952,0.00012026,0.00795465,0.000233118,0,0,0.0479455,-0.0203694,0,0.00121222,0,0,0,0.0263973,0.000118192,0.00795465,0.508289,0.0114901,0.0233681,4.15554e-07,0.84,0.04,0
0.0433021,0.0112774,0.0263429,0.000100031,0.00793287,0.000154911,0,0,0.047866,-0.0203654,0,0.000805538,0,0,0,0.0263438,9.9117e-05,0.00793287,0.338201,0.0114586,0.0233357,4.13352e-07,0.86,0.04,0
0.0442589,0.0114286,0.026311,7.69502e-05,0.00791639,9.18497e-05,0,0,0.047826,-0.0203825,0,0.000477618,0,0,0,0.0263113,7.66287e-05,0.00791639,0.200598,0.0114348,0.0233248,4.12206e-07,0.88,0.04,0
0.0452152,0.011555,0.0262951,5.36558e-05,0.00790463,4.51377e-05,0,0,0.0478153,-0.0204125,0,0.000234716,0,0,0,0.0262952,5.35781e-05,0.00790463,0.0985535,0.0114178,0.0233289,4.11837e-07,0.9,0.04,0
0.0461715,0.0116572,0.0262903,3.22492e-05,0.00789677,1.42684e-05,0,0,0.0478232,-0.0204478,0,7.41955e-05,0,0,0,0.0262903,3.22414e-05,0.00789677,0.0311339,0.0114065,0.0233416,4.11969e-07,0.92,0.04,0
0.0471281,0.0117357,0.0262921,1.42819e-05,0.0078919,-2.59439e-06,0,0,0.0478404,-0.0204818,0,-1.34908e-05,0,0,0,0.0262921,1.42816e-05,0.0078919,-0.00565679,0.0113994,0.0233575,4.12352e-07,0.94,0.04,0
0.0480851,0.0117912,0.0262963,8.12413e-07,0.00788914,-8.24455e-06,0,0,0.0478587,-0.0205097,0,-4.28717e-05,0,0,0,0.0262963,8.09828e-07,0.00788914,-0.0179642,0.0113954,0.023372,4.1278e-07,0.96,0.04,0
0.0490425,0.0118242,0.0263001,-7.50125e-06,0.00788779,-6.11127e-06,0,0,0.0478721,-0.0205278,0,-3.17786e-05,0,0,0,0.0263001,-7.50267e-06,0.00788779,-0.0133098,0.0113935,0.0233821,4.131e-07,0.98,0.04,0
0.05,0.0118352,0.0263016,-1.03088e-05,0.0078874,0.000105438,0,0,0.047877,-0.020534,0,0.000548275,0,0,0,0.026302,-1.07313e-05,0.0078874,0.229591,0.0113929,0.0233863,4.13244e-07,1,0.04,0
0,0,0.0335655,0.0143852,0.0143852,0.00984928,0,0,0.0498688,-2.1684e-19,0,0.0512163,0,0,0,0.0377223,0.0102284,0.0143852,22.8819,0.0207787,0.0256692,7.92437e-07,0,0.06,0
0.000997375,0.00102433,0.0331142,0.0107479,0.0131586,0.00938164,0,0,0.0518844,-0.0062679,0,0.0487845,0,0,0,0.0365282,0.00733384,0.0131586,19.9968,0.0190069,0.0267617,8.29351e-07,0.02,0.06,0
0.00207538,0.0021006,0.0334433,0.00708904,0.0121597,0.00854016,0,0,0.0553373,-0.0131837,0,0.0444088,0,0,0,0.0359687,0.00456358,0.0121597,16.4738,0.017564,0.02838,8.96573e-07,0.04,0.06,0
0.00321087,0.00313479,0.033402,0.00449761,0.0113699,0.00701823,0,0,0.0572834,-0.0178679,0,0.0364948,0,0,0,0.0350159,0.00288365,0.0113699,12.951,0.0164231,0.0288412,8.82022e-07,0.06,0.06,0
0.00436671,0.00407269,0.0328975,0.00302444,0.0107766,0.00551557,0,0,0.0575144,-0.0201556,0,0.028681,0,0,0,0.0338833,0.00203861,0.0107766,10.1338,0.0155662,0.0284988,8.22879e-07,0.08,0.06,0
0.00551144,0.00490145,0.0320337,0.00208695,0.0102362,0.00428554,0,0,0.0566735,-0.021188,0,0.0222848,0,0,0,0.0326349,0.00148574,0.0102362,7.98584,0.0147856,0.0278258,7.48833e-07,0.1,0.06,0
0.00663366,0.00562877,0.0311199,0.0014833,0.00978098,0.00334831,0,0,0.0554813,-0.0215739,0,0.0174112,0,0,0,0.0314935,0.00110972,0.00978098,6.36629,0.0141281,0.027109,6.81399e-07,0.12,0.06,0
0.0077307,0.00626488,0.0302723,0.00108278,0.00940651,0.00264061,0,0,0.054251,-0.0216417,0,0.0137312,0,0,0,0.0305092,0.000845821,0.00940651,5.12775,0.0135872,0.0264436,6.24992e-07,0.14,0.06,0
0.00880369,0.00681951,0.029529,0.000812222,0.00910238,0.0021024,0,0,0.0531093,-0.0215544,0,0.0109325,0,0,0,0.0296821,0.000659118,0.00910238,4.16511,0.0131479,0.0258568,5.7921e-07,0.16,0.06,0
0.00985507,0.00730074,0.028893,0.000627835,0.00885624,0.00168572,0,0,0.0520955,-0.0213938,0,0.00876576,0,0,0,0.0289931,0.000527654,0.00885624,3.40103,0.0127923,0.025349,5.42274e-07,0.18,0.06,0
0.0108875,0.00771506,0.0283546,0.000503076,0.00865731,0.00135495,0,0,0.051213,-0.021201,0,0.00704575,0,0,0,0.0284204,0.000437315,0.00865731,2.77864,0.012505,0.0249119,5.12392e-07,0.2,0.06,0
0.0119036,0.00806758,0.0279019,0.0004213,0.00849695,0.00108359,0,0,0.0504528,-0.0209967,0,0.00563468,0,0,0,0.0279445,0.000378639,0.00849695,2.25458,0.0122734,0.0245356,4.88085e-07,0.22,0.06,0
0.0129056,0.00836225,0.027523,0.000371582,0.00836839,0.000851673,0,0,0.0498021,-0.0207917,0,0.0044287,0,0,0,0.0275497,0.000344893,0.00836839,1.79487,0.0120877,0.0242116,4.68228e-07,0.24,0.06,0
0.0138957,0.00860218,0.0272086,0.000346182,0.00826643,0.00064395,0,0,0.0492496,-0.0205927,0,0.00334854,0,0,0,0.027224,0.000330754,0.00826643,1.37245,0.0119404,0.0239334,4.52002e-07,0.26,0.06,0
0.0148756,0.00878979,0.026951,0.000338923,0.00818697,0.000448842,0,0,0.0487864,-0.0204049,0,0.00233398,0,0,0,0.0269586,0.000331355,0.00818697,0.96599,0.0118256,0.023697,4.38839e-07,0.28,0.06,0
0.0158471,0.00892713,0.0267447,0.000344129,0.00812664,0.000257947,0,0,0.0484069,-0.0202345,0,0.00134132,0,0,0,0.0267472,0.000341609,0.00812664,0.559738,0.0117385,0.0235009,4.28369e-07,0.3,0.06,0
0.0168119,0.00901614,0.0265857,0.000355945,0.00808248,6.59583e-05,0,0,0.0481083,-0.020089,0,0.000342983,0,0,0,0.0265858,0.000355779,0.00808248,0.144077,0.0116747,0.0233462,4.20376e-07,0.32,0.06,0
0.0177715,0.00905891,0.026471,0.000368016,0.00805171,-0.000129194,0,0,0.0478902,-0.0199776,0,-0.000671806,0,0,0,0.0264717,0.000367377,0.00805171,-0.283569,0.0116302,0.0232355,4.14753e-07,0.34,0.06,0
0.0187275,0.00905802,0.0263983,0.000373503,0.00803154,-0.000326152,0,0,0.0477536,-0.0199109,0,-0.00169599,0,0,0,0.0264024,0.000369416,0.00803154,-0.717901,0.0116011,0.0231723,4.11453e-07,0.36,0.06,0
0.0196816,0.00901689,0.0263652,0.000365298,0.00801914,-0.000520093,0,0,0.0476997,-0.0199,0,-0.00270449,0,0,0,0.0263756,0.000354898,0.00801914,-1.14552,0.0115832,0.02316,4.10447e-07,0.38,0.06,0
0.0206355,0.00894005,0.0263691,0.000336451,0.00801167,-0.000702806,0,0,0.0477294,-0.0199556,0,-0.00365459,0,0,0,0.0263881,0.000317491,0.00801167,-1.54532,0.0115724,0.023201,4.11684e-07,0.4,0.06,0
0.0215908,0.00883348,0.026407,0.000280256,0.00800617,-0.000862928,0,0,0.0478421,-0.0200874,0,-0.00448722,0,0,0,0.0264354,0.000251786,0.00800617,-1.88965,0.0115645,0.0232954,4.15056e-07,0.42,0.06,0
0.0225492,0.00870477,0.0264743,0.000191726,0.0079998,-0.000985973,0,0,0.0480336,-0.020301,0,-0.00512706,0,0,0,0.0265112,0.00015479,0.0079998,-2.1454,0.0115553,0.0234401,4.20332e-07,0.44,0.06,0
0.0235121,0.00856329,0.0265634,7.0468e-05,0.00799016,-0.00105578,0,0,0.0482904,-0.0205912,0,-0.00549004,0,0,0,0.0266054,2.84605e-05,0.00799016,-2.27849,0.0115413,0.0236247,4.2703e-07,0.46,0.06,0
0.0244808,0.00841996,0.0266635,-7.29805e-05,0.00797715,-0.00105782,0,0,0.0485844,-0.0209303,0,-0.00550069,0,0,0,0.0267053,-0.000114768,0.00797715,-2.26219,0.0115225,0.0238279,4.34337e-07,0.48,0.06,0
0.0254555,0.00828666,0.0267617,-0.000214839,0.00796406,-0.000986855,0,0,0.0488739,-0.0212651,0,-0.00513164,0,0,0,0.0267978,-0.000250892,0.00796406,-2.09226,0.0115036,0.024019,4.41207e-07,0.5,0.06,0
0.0264357,0.00817497,0.0268477,-0.000326002,0.00795652,-0.000852001,0,0,0.0491172,-0.0215346,0,-0.00443041,0,0,0,0.0268744,-0.00035269,0.00795652,-1.79409,0.0114928,0.0241686,4.46741e-07,0.52,0.06,0
0.0274202,0.00809473,0.0269169,-0.000390192,0.007958,-0.000675702,0,0,0.049293,-0.0217053,0,-0.00351365,0,0,0,0.0269336,-0.000406902,0.007958,-1.4166,0.0114949,0.0242646,4.50613e-07,0.54,0.06,0
0.0284075,0.00805309,0.0269709,-0.000414595,0.00796688,-0.000481825,0,0,0.0494104,-0.0217918,0,-0.00250549,0,0,0,0.0269793,-0.000423069,0.00796688,-1.00766,0.0115077,0.0243183,4.5318e-07,0.56,0.06,0
0.0293966,0.00805446,0.0270159,-0.000420529,0.00797862,-0.000284943,0,0,0.049497,-0.0218378,0,-0.0014817,0,0,0,0.0270189,-0.000423488,0.00797862,-0.594964,0.0115247,0.0243538,4.55172e-07,0.58,0.06,0
0.0303873,0.00810114,0.0270569,-0.000425293,0.00798947,-8.69126e-05,0,0,0.0495752,-0.0218784,0,-0.000451946,0,0,0,0.0270572,-0.000425568,0.00798947,-0.181196,0.0115404,0.0243894,4.57134e-07,0.6,0.06,0
0.0313796,0.00819381,0.0270927,-0.000428829,0.00799916,0.000115631,0,0,0.0496432,-0.0219128,0,0.00060128,0,0,0,0.0270932,-0.000429315,0.00799916,0.240721,0.0115543,0.0244245,4.59018e-07,0.62,0.06,0
0.0323731,0.00833158,0.0271166,-0.000413816,0.00801083,0.000320773,0,0,0.049675,-0.0219041,0,0.00166802,0,0,0,0.0271203,-0.000417553,0.00801083,0.667466,0.0115712,0.0244392,4.60188e-07,0.64,0.06,0
0.0333666,0.00851144,0.0271204,-0.000359154,0.00802838,0.000513925,0,0,0.0496393,-0.0218076,0,0.00267241,0,0,0,0.02713,-0.000368762,0.00802838,1.07105,0.0115966,0.0244087,4.59831e-07,0.66,0.06,0
0.0343586,0.00872762,0.0271005,-0.000258112,0.00805271,0.0006714,0,0,0.0495242,-0.0216081,0,0.00349128,0,0,0,0.0271169,-0.000274579,0.00805271,1.40495,0.0116317,0.0243216,4.57523e-07,0.68,0.06,0
0.0353476,0.00897173,0.0270594,-0.000127394,0.00807959,0.000771215,0,0,0.0493474,-0.0213382,0,0.00401032,0,0,0,0.0270812,-0.000149254,0.00807959,1.62359,0.0116705,0.0241896,4.53522e-07,0.7,0.06,0
0.0363325,0.00923366,0.0270053,3.85042e-06,0.00810276,0.000804848,0,0,0.0491467,-0.0210572,0,0.00418521,0,0,0,0.0270293,-2.01189e-05,0.00810276,1.70583,0.011704,0.0240402,4.48641e-07,0.72,0.06,0
0.0373135,0.00950307,0.0269488,0.000112151,0.00811828,0.000778096,0,0,0.0489593,-0.0208159,0,0.0040461,0,0,0,0.0269713,8.96102e-05,0.00811828,1.65936,0.0117264,0.0239011,4.43813e-07,0.74,0.06,0
0.0382909,0.0097706,0.0268981,0.000187274,0.0081256,0.000705839,0,0,0.0488084,-0.0206397,0,0.00367036,0,0,0,0.0269167,0.000168635,0.0081256,1.51265,0.011737,0.0237895,4.39712e-07,0.76,0.06,0
0.0392658,0.0100285,0.0268581,0.000229573,0.00812631,0.000604543,0,0,0.0487027,-0.0205315,0,0.00314363,0,0,0,0.0268718,0.000215856,0.00812631,1.29988,0.011738,0.0237119,4.3667e-07,0.78,0.06,0
0.040239,0.0102707,0.0268306,0.000243544,0.00812225,0.000489176,0,0,0.0486418,-0.0204846,0,0.00254371,0,0,0,0.0268396,0.000234547,0.00812225,1.05371,0.0117321,0.0236684,4.34763e-07,0.8,0.06,0
0.0412115,0.0104929,0.0268157,0.000235047,0.00811524,0.00037199,0,0,0.0486213,-0.0204885,0,0.00193435,0,0,0,0.0268209,0.000229843,0.00811524,0.80163,0.011722,0.0236555,4.33937e-07,0.82,0.06,0
0.0421839,0.0106924,0.0268125,0.00020996,0.00810674,0.000262652,0,0,0.048635,-0.0205316,0,0.00136579,0,0,0,0.0268151,0.000207367,0.00810674,0.565618,0.0117097,0.0236683,4.34052e-07,0.84,0.06,0
0.0431569,0.0108675,0.0268193,0.000174182,0.00809803,0.000168096,0,0,0.0486752,-0.020602,0,0.000874101,0,0,0,0.0268203,0.000173122,0.00809803,0.361444,0.0116972,0.0237002,4.34914e-07,0.86,0.06,0
0.0441309,0.0110177,0.0268335,0.000133204,0.00809001,9.25163e-05,0,0,0.0487331,-0.0206877,0,0.000481085,0,0,0,0.0268338,0.000132883,0.00809001,0.198526,0.0116856,0.0237443,4.36286e-07,0.88,0.06,0
0.0451062,0.011143,0.0268523,9.17852e-05,0.00808323,3.75134e-05,0,0,0.0487996,-0.0207778,0,0.00019507,0,0,0,0.0268524,9.17326e-05,0.00808323,0.0803181,0.0116758,0.0237937,4.37922e-07,0.9,0.06,0
0.0460829,0.0112441,0.0268727,5.37134e-05,0.00807792,2.48548e-06,0,0,0.0488664,-0.0208629,0,1.29245e-05,0,0,0,0.0268727,5.37132e-05,0.00807792,0.00530995,0.0116681,0.0238421,4.3959e-07,0.92,0.06,0
0.0470608,0.0113215,0.0268918,2.17687e-05,0.00807406,-1.48823e-05,0,0,0.048926,-0.020936,0,-7.7388e-05,0,0,0,0.0268918,2.17604e-05,0.00807406,-0.031734,0.0116625,0.0238846,4.41092e-07,0.94,0.06,0
0.0480399,0.0113762,0.0269072,-2.16839e-06,0.0080715,-1.81226e-05,0,0,0.0489728,-0.0209915,0,-9.42375e-05,0,0,0,0.0269072,-2.18059e-06,0.0080715,-0.0385869,0.0116588,0.0239174,4.42274e-07,0.96,0.06,0
0.0490197,0.0114087,0.0269172,-1.69374e-05,0.00807007,-1.15639e-05,0,0,0.0490024,-0.0210262,0,-6.01323e-05,0,0,0,0.0269172,-1.69424e-05,0.00807007,-0.0245994,0.0116568,0.023938,4.43026e-07,0.98,0.06,0
0.05,0.0114195,0.0269206,-2.1924e-05,0.0080696,0.000103783,0,0,0.0490126,-0.021038,0,0.00053967,0,0,0,0.026921,-2.23237e-05,0.0080696,0.220699,0.0116561,0.0239457,4.4331e-07,1,0.06,0
0,0,0.0318613,0.0136549,0.0136549,0.00886636,0,0,0.0473368,6.50521e-19,0,0.0461051,0,0,0,0.0354656,0.0100506,0.0136549,22.1224,0.0197237,0.0238183,6.40751e-07,0,0.08,0
0.000946737,0.000922102,0.0316028,0.0110506,0.012796,0.00865251,0,0,0.0488976,-0.00453805,0,0.044993,0,0,0,0.0347604,0.00789303,0.012796,20.0488,0.0184832,0.0247823,6.79727e-07,0.02,0.08,0
0.0019559,0.00187981,0.0320813,0.00835226,0.0121301,0.00821352,0,0,0.0518732,-0.00982229,0,0.0427103,0,0,0,0.0346469,0.00578665,0.0121301,17.347,0.0175212,0.0262694,7.512e-07,0.04,0.08,0
0.00302166,0.00281927,0.0323325,0.00599248,0.0114975,0.00727869,0,0,0.054171,-0.014313,0,0.0378492,0,0,0,0.03421,0.00411495,0.0114975,14.4641,0.0166075,0.0271668,7.79122e-07,0.06,0.08,0
0.00412274,0.00369817,0.0322604,0.00426147,0.0109566,0.00613362,0,0,0.0553899,-0.0174072,0,0.0318948,0,0,0,0.0335451,0.00297674,0.0109566,11.8299,0.0158261,0.0274622,7.68726e-07,0.08,0.08,0
0.00523726,0.00449585,0.0319057,0.00308031,0.0104958,0.00503916,0,0,0.0556658,-0.0192803,0,0.0262036,0,0,0,0.0327613,0.00222478,0.0104958,9.63565,0.0151606,0.0273554,7.36404e-07,0.1,0.08,0
0.00634937,0.00520772,0.031377,0.00226341,0.0100921,0.00410138,0,0,0.0553407,-0.0203547,0,0.0213272,0,0,0,0.0319437,0.00169666,0.0100921,7.86759,0.0145775,0.027045,6.95681e-07,0.12,0.08,0
0.00745089,0.00583721,0.0307937,0.00169509,0.00974665,0.00333577,0,0,0.0547224,-0.0209341,0,0.017346,0,0,0,0.0311712,0.00131758,0.00974665,6.4566,0.0140785,0.026658,6.55127e-07,0.14,0.08,0
0.00853827,0.00639003,0.0302214,0.00129627,0.0094553,0.00272005,0,0,0.0539918,-0.0212135,0,0.0141443,0,0,0,0.0304749,0.0010427,0.0094553,5.32575,0.0136576,0.0262569,6.1815e-07,0.16,0.08,0
0.00961056,0.0068721,0.029691,0.00101611,0.00921213,0.00222431,0,0,0.053245,-0.0213096,0,0.0115664,0,0,0,0.0298625,0.000844597,0.00921213,4.40929,0.0133064,0.0258698,5.857e-07,0.18,0.08,0
0.0106681,0.00728875,0.0292135,0.000821444,0.00901048,0.00182014,0,0,0.0525278,-0.0212915,0,0.00946472,0,0,0,0.0293297,0.000705236,0.00901048,3.65315,0.0130151,0.0255069,5.57641e-07,0.2,0.08,0
0.0117117,0.00764442,0.02879,0.000690332,0.00884409,0.0014833,0,0,0.0518593,-0.0211998,0,0.00771314,0,0,0,0.0288681,0.000612251,0.00884409,3.01331,0.0127748,0.0251706,5.33457e-07,0.22,0.08,0
0.0127424,0.00794272,0.0284171,0.000607728,0.00870744,0.0011938,0,0,0.051245,-0.0210592,0,0.00620777,0,0,0,0.0284682,0.000556574,0.00870744,2.45358,0.0125774,0.0248594,5.12564e-07,0.24,0.08,0
0.0137615,0.0081865,0.0280898,0.000562577,0.00859571,0.000935409,0,0,0.0506846,-0.0208861,0,0.00486413,0,0,0,0.0281215,0.000530827,0.00859571,1.94399,0.012416,0.0245718,4.94444e-07,0.26,0.08,0
0.0147698,0.00837802,0.0278031,0.000545799,0.00850467,0.000695174,0,0,0.0501759,-0.0206931,0,0.00361491,0,0,0,0.0278208,0.00052808,0.00850467,1.46001,0.0122845,0.0243067,4.78694e-07,0.28,0.08,0
0.0157685,0.00851917,0.0275526,0.000548839,0.00843043,0.000463313,0,0,0.0497176,-0.0204921,0,0.00240923,0,0,0,0.0275605,0.000540892,0.00843043,0.982657,0.0121773,0.0240652,4.65044e-07,0.3,0.08,0
0.0167585,0.00861166,0.0273347,0.00056269,0.00836922,0.000233351,0,0,0.0493103,-0.020297,0,0.00121342,0,0,0,0.0273367,0.000560656,0.00836922,0.499352,0.0120889,0.0238506,4.53349e-07,0.32,0.08,0
0.0177409,0.00865735,0.0271465,0.000577445,0.00831719,2.49053e-06,0,0,0.0489563,-0.0201233,0,1.29508e-05,0,0,0,0.0271465,0.000577444,0.00831719,0.00537079,0.0120137,0.0236682,4.43565e-07,0.34,0.08,0
0.0187168,0.00865854,0.0269856,0.000582412,0.00827039,-0.000228096,0,0,0.0486594,-0.0199887,0,-0.0011861,0,0,0,0.0269875,0.000580441,0.00827039,-0.494928,0.0119461,0.0235245,4.357e-07,0.36,0.08,0
0.0196873,0.00861838,0.0268495,0.000566911,0.00822491,-0.000453266,0,0,0.0484238,-0.0199108,0,-0.00235698,0,0,0,0.0268573,0.000559096,0.00822491,-0.987724,0.0118804,0.0234257,4.29761e-07,0.38,0.08,0
0.0206537,0.00854111,0.0267359,0.000520872,0.00817703,-0.000664534,0,0,0.0482531,-0.019906,0,-0.00345557,0,0,0,0.0267527,0.000504037,0.00817703,-1.45117,0.0118113,0.0233766,4.25719e-07,0.4,0.08,0
0.0216174,0.00843245,0.026644,0.000435995,0.00812398,-0.000850482,0,0,0.0481519,-0.0199888,0,-0.00442251,0,0,0,0.0266715,0.000408425,0.00812398,-1.85672,0.0117346,0.0233805,4.23537e-07,0.42,0.08,0
0.0225798,0.0082998,0.0265723,0.000303469,0.00806273,-0.000997071,0,0,0.0481249,-0.0201741,0,-0.00518477,0,0,0,0.0266101,0.000265678,0.00806273,-2.17058,0.0116462,0.0234396,4.23122e-07,0.44,0.08,0
0.0235424,0.00815254,0.0265189,0.000119583,0.00799154,-0.0010852,0,0,0.0481711,-0.0204671,0,-0.00564302,0,0,0,0.0265634,7.50491e-05,0.00799154,-2.34997,0.0115433,0.0235501,4.24207e-07,0.46,0.08,0
0.0245067,0.0080022,0.0264753,-0.000105928,0.00791081,-0.00109535,0,0,0.0482677,-0.0208435,0,-0.00569583,0,0,0,0.0265204,-0.000150989,0.00791081,-2.35571,0.0114267,0.0236925,4.26005e-07,0.48,0.08,0
0.0254731,0.00786195,0.0264315,-0.000332431,0.00782973,-0.00101571,0,0,0.0483647,-0.0212216,0,-0.00528168,0,0,0,0.02647,-0.000370923,0.00782973,-2.17025,0.0113096,0.0238238,4.27266e-07,0.5,0.08,0
0.0264412,0.00774491,0.0263816,-0.000501149,0.00776414,-0.000861422,0,0,0.0484055,-0.0214898,0,-0.00447939,0,0,0,0.0264092,-0.000528724,0.00776414,-1.83346,0.0112149,0.0238963,4.26927e-07,0.52,0.08,0
0.0274093,0.00766173,0.0263285,-0.000579974,0.00772454,-0.000669272,0,0,0.0483702,-0.0215917,0,-0.00348021,0,0,0,0.0263451,-0.00059661,0.00772454,-1.4239,0.0111577,0.0238937,4.24942e-07,0.54,0.08,0
0.0283761,0.00761906,0.0262855,-0.000589595,0.00770877,-0.000478895,0,0,0.0482995,-0.0215757,0,-0.00249025,0,0,0,0.026294,-0.000598126,0.00770877,-1.02054,0.0111349,0.0238496,4.22518e-07,0.56,0.08,0
0.0293413,0.00762004,0.0262714,-0.000580604,0.00770723,-0.000305243,0,0,0.0482668,-0.0215484,0,-0.00158726,0,0,0,0.0262749,-0.000584073,0.00770723,-0.651204,0.0111327,0.0238213,4.21377e-07,0.58,0.08,0
0.0303067,0.00766595,0.0263011,-0.000588779,0.00771369,-0.000138405,0,0,0.0483272,-0.0215864,0,-0.000719704,0,0,0,0.0263018,-0.000589491,0.00771369,-0.294896,0.011142,0.0238496,4.22753e-07,0.6,0.08,0
0.0312744,0.00775749,0.0263735,-0.000613985,0.00772786,4.30346e-05,0,0,0.0484787,-0.0216888,0,0.00022378,0,0,0,0.0263736,-0.000614054,0.00772786,0.0913643,0.0111625,0.0239331,4.26594e-07,0.62,0.08,0
0.0322459,0.00789483,0.0264717,-0.000620283,0.00775543,0.000248818,0,0,0.0486623,-0.0217768,0,0.00129385,0,0,0,0.026474,-0.000622568,0.00775543,0.526156,0.0112023,0.0240291,4.31584e-07,0.64,0.08,0
0.0332209,0.00807623,0.0265751,-0.000557354,0.00780531,0.000463795,0,0,0.0488014,-0.0217429,0,0.00241173,0,0,0,0.026583,-0.000565279,0.00780531,0.979019,0.0112743,0.02408,4.35955e-07,0.66,0.08,0
0.0341979,0.00829645,0.0266683,-0.00040543,0.00787887,0.000648425,0,0,0.0488526,-0.0215392,0,0.00337181,0,0,0,0.0266838,-0.000420951,0.00787887,1.3712,0.0113806,0.0240539,4.38494e-07,0.68,0.08,0
0.035175,0.00854629,0.0267466,-0.000197621,0.0079647,0.000766589,0,0,0.048833,-0.021222,0,0.00398626,0,0,0,0.0267684,-0.000219414,0.0079647,1.62836,0.0115046,0.0239677,4.39224e-07,0.7,0.08,0
0.0361512,0.00881413,0.0268139,7.20657e-06,0.00804632,0.000804106,0,0,0.0487956,-0.0209017,0,0.00418135,0,0,0,0.026838,-1.68921e-05,0.00804632,1.71662,0.0116225,0.0238676,4.39126e-07,0.72,0.08,0
0.0371268,0.0090884,0.0268778,0.00016919,0.00811408,0.000773597,0,0,0.0487855,-0.0206567,0,0.0040227,0,0,0,0.0269001,0.000146802,0.00811408,1.65768,0.0117203,0.0237922,4.39287e-07,0.74,0.08,0
0.0381027,0.00935916,0.0269442,0.000279261,0.00816704,0.000694923,0,0,0.0488206,-0.0205082,0,0.0036136,0,0,0,0.0269623,0.000261163,0.00816704,1.49185,0.0117968,0.0237562,4.40292e-07,0.76,0.08,0
0.0390797,0.00961869,0.0270128,0.000340996,0.00820615,0.000587413,0,0,0.0488974,-0.0204494,0,0.00305455,0,0,0,0.0270258,0.000328065,0.00820615,1.26105,0.0118533,0.0237593,4.42205e-07,0.78,0.08,0
0.0400586,0.00986118,0.0270825,0.000362251,0.00823344,0.00046564,0,0,0.0490077,-0.0204651,0,0.00242133,0,0,0,0.0270906,0.000354139,0.00823344,0.998059,0.0118927,0.0237962,4.44933e-07,0.8,0.08,0
0.04104,0.0100826,0.0271516,0.000349815,0.00825043,0.000342192,0,0,0.0491431,-0.0205416,0,0.0017794,0,0,0,0.027156,0.000345447,0.00825043,0.731365,0.0119173,0.0238612,4.48337e-07,0.82,0.08,0
0.0420243,0.0102804,0.0272196,0.000311965,0.00825947,0.00022751,0,0,0.0492963,-0.0206635,0,0.00118305,0,0,0,0.0272215,0.000310041,0.00825947,0.484402,0.0119303,0.0239477,4.5226e-07,0.84,0.08,0
0.0430118,0.0104534,0.0272854,0.000257432,0.00826284,0.000129526,0,0,0.0494586,-0.0208141,0,0.000673534,0,0,0,0.027286,0.000256811,0.00826284,0.27457,0.0119352,0.0240474,4.56478e-07,0.86,0.08,0
0.0440026,0.0106011,0.0273473,0.000194787,0.00826264,5.30624e-05,0,0,0.0496202,-0.0209764,0,0.000275924,0,0,0,0.0273474,0.000194683,0.00826264,0.111969,0.0119349,0.0241515,4.6073e-07,0.88,0.08,0
0.0449966,0.0107239,0.0274036,0.000131472,0.00826052,-1.00238e-07,0,0,0.049772,-0.0211355,0,-5.21238e-07,0,0,0,0.0274036,0.000131472,0.00826052,-0.000210589,0.0119319,0.0242519,4.64751e-07,0.9,0.08,0
0.0459935,0.0108227,0.0274523,7.33604e-05,0.00825769,-3.07661e-05,0,0,0.0499059,-0.0212793,0,-0.000159984,0,0,0,0.0274523,7.33258e-05,0.00825769,-0.064384,0.0119278,0.0243416,4.68312e-07,0.92,0.08,0
0.0469929,0.0108983,0.0274917,2.46879e-05,0.00825492,-4.16693e-05,0,0,0.0500156,-0.0213986,0,-0.00021668,0,0,0,0.0274918,2.46247e-05,0.00825492,-0.0869213,0.0119238,0.0244155,4.71236e-07,0.94,0.08,0
0.0479941,0.0109515,0.0275207,-1.17275e-05,0.00825269,-3.68565e-05,0,0,0.0500968,-0.0214875,0,-0.000191654,0,0,0,0.0275207,-1.17768e-05,0.00825269,-0.0766993,0.0119205,0.0244704,4.73399e-07,0.96,0.08,0
0.0489967,0.0109832,0.0275384,-3.41718e-05,0.00825127,-2.1192e-05,0,0,0.0501465,-0.0215421,0,-0.000110199,0,0,0,0.0275384,-3.41881e-05,0.00825127,-0.044037,0.0119185,0.024504,4.74724e-07,0.98,0.08,0
0.05,0.0109937,0.0275443,-4.17457e-05,0.00825078,0.000100913,0,0,0.0501633,-0.0215606,0,0.000524748,0,0,0,0.0275447,-4.21149e-05,0.00825078,0.209591,0.0119178,0.0245159,4.75196e-07,1,0.08,0
0,0,0.0308701,0.01323,0.01323,0.00810388,0,0,0.0458641,4.33681e-19,0,0.0421402,0,0,0,0.0340278,0.0100724,0.01323,21.2885,0.0191101,0.0225431,5.49667e-07,0,0.1,0
0.000917283,0.000842803,0.0306937,0.01115,0.0125531,0.00798512,0,0,0.0471655,-0.00364807,0,0.0415226,0,0,0,0.0335413,0.00830236,0.0125531,19.6271,0.0181322,0.0234049,5.85938e-07,0.02,0.1,0
0.00188662,0.00170771,0.0311993,0.00904218,0.0120724,0.00773398,0,0,0.0497298,-0.00787868,0,0.0402167,0,0,0,0.0336318,0.00660967,0.0120724,17.4595,0.017438,0.0247471,6.52351e-07,0.04,0.1,0
0.00290647,0.00256226,0.0315675,0.00701288,0.0115741,0.00712821,0,0,0.0519829,-0.0118592,0,0.0370667,0,0,0,0.0334868,0.00509358,0.0115741,15.0697,0.0167182,0.0257715,6.95251e-07,0.06,0.1,0
0.00396593,0.0033764,0.0317256,0.00532245,0.0111144,0.00630137,0,0,0.053589,-0.0150591,0,0.0327671,0,0,0,0.0331524,0.00389567,0.0111144,12.758,0.0160541,0.0263983,7.12022e-07,0.08,0.1,0
0.00505004,0.00413024,0.0316619,0.0040238,0.0107057,0.00541209,0,0,0.0544861,-0.017373,0,0.0281429,0,0,0,0.0326839,0.0030018,0.0107057,10.6936,0.0154638,0.0266779,7.07972e-07,0.1,0.1,0
0.00614538,0.00481459,0.0314247,0.00306162,0.0103459,0.0045729,0,0,0.0548049,-0.0189391,0,0.0237791,0,0,0,0.0321438,0.00234257,0.0103459,8.93607,0.0149441,0.0267143,6.91016e-07,0.12,0.1,0
0.00724223,0.00542752,0.0310805,0.00235466,0.0100306,0.00383377,0,0,0.0547299,-0.0199573,0,0.0199356,0,0,0,0.0315834,0.00185181,0.0100306,7.47251,0.0144886,0.0266025,6.67733e-07,0.14,0.1,0
0.00833458,0.00597097,0.0306884,0.00183787,0.00975787,0.0032049,0,0,0.0544193,-0.020592,0,0.0166655,0,0,0,0.0310401,0.00148614,0.00975787,6.26305,0.0140947,0.0264082,6.42465e-07,0.16,0.1,0
0.009419,0.00644835,0.0302863,0.00146261,0.00952467,0.00267699,0,0,0.0539802,-0.0209613,0,0.0139203,0,0,0,0.0305328,0.0012161,0.00952467,5.26136,0.0137579,0.026171,6.17513e-07,0.18,0.1,0
0.0104938,0.0068634,0.0298957,0.00119431,0.009327,0.00223369,0,0,0.0534786,-0.021145,0,0.0116152,0,0,0,0.0300685,0.00102151,0.009327,4.42356,0.0134723,0.0259125,5.93914e-07,0.2,0.1,0
0.0115581,0.00721959,0.0295266,0.00100845,0.00916052,0.00185723,0,0,0.0529518,-0.0211954,0,0.00965759,0,0,0,0.029647,0.000888007,0.00916052,3.71047,0.0132319,0.0256439,5.71997e-07,0.22,0.1,0
0.0126119,0.00751988,0.0291823,0.000887319,0.00902089,0.00153077,0,0,0.0524197,-0.0211473,0,0.00796,0,0,0,0.0292649,0.000804745,0.00902089,3.08771,0.0130302,0.0253703,5.5174e-07,0.24,0.1,0
0.0136549,0.00776673,0.0288623,0.000817334,0.00890389,0.0012393,0,0,0.0518918,-0.021025,0,0.00644434,0,0,0,0.0289169,0.000762677,0.00890389,2.52532,0.0128612,0.0250945,5.3299e-07,0.26,0.1,0
0.0146875,0.00796206,0.0285643,0.000786927,0.00880538,0.000969953,0,0,0.0513733,-0.020848,0,0.00504376,0,0,0,0.0285982,0.000753098,0.00880538,1.99746,0.0127189,0.0248188,5.15581e-07,0.28,0.1,0
0.0157099,0.00810745,0.0282858,0.000784816,0.00872117,0.000712388,0,0,0.0508679,-0.0206345,0,0.00370442,0,0,0,0.0283042,0.000766374,0.00872117,1.48287,0.0125972,0.0245469,4.99414e-07,0.3,0.1,0
0.0167222,0.00820426,0.0280241,0.000798708,0.00864684,0.000459314,0,0,0.0503809,-0.0204052,0,0.00238843,0,0,0,0.0280318,0.000790961,0.00864684,0.966258,0.0124899,0.0242854,4.84492e-07,0.32,0.1,0
0.0177251,0.00825398,0.0277773,0.000814578,0.00857756,0.000207287,0,0,0.0499193,-0.0201838,0,0.00107789,0,0,0,0.0277789,0.000812985,0.00857756,0.44045,0.0123898,0.0240431,4.70915e-07,0.34,0.1,0
0.018719,0.00825847,0.0275433,0.000817085,0.00850811,-4.25139e-05,0,0,0.0494914,-0.0199967,0,-0.000221072,0,0,0,0.0275433,0.000817017,0.00850811,-0.0911413,0.0122895,0.0238305,4.58824e-07,0.36,0.1,0
0.0197048,0.00822046,0.0273191,0.000790803,0.00843298,-0.000284272,0,0,0.049104,-0.0198697,0,-0.00147822,0,0,0,0.0273222,0.000787757,0.00843298,-0.613876,0.012181,0.0236572,4.48296e-07,0.38,0.1,0
0.0206832,0.00814381,0.0271016,0.000723196,0.00834745,-0.000508359,0,0,0.0487609,-0.019823,0,-0.00264347,0,0,0,0.0271114,0.000713403,0.00834745,-1.10364,0.0120574,0.0235289,4.39288e-07,0.4,0.1,0
0.0216552,0.00803393,0.0268867,0.000604009,0.0082472,-0.000704311,0,0,0.0484626,-0.0198723,0,-0.00366242,0,0,0,0.0269055,0.000585148,0.0082472,-1.53392,0.0119126,0.0234478,4.31621e-07,0.42,0.1,0
0.0226217,0.00789781,0.0266788,0.000429626,0.00813253,-0.000860191,0,0,0.0482203,-0.0200276,0,-0.00447299,0,0,0,0.026707,0.000401468,0.00813253,-1.87491,0.011747,0.0234175,4.25362e-07,0.44,0.1,0
0.023584,0.00774461,0.0264774,0.000182564,0.00799799,-0.000962695,0,0,0.0480465,-0.0203201,0,-0.00500601,0,0,0,0.0265126,0.000147366,0.00799799,-2.09395,0.0115526,0.0234473,4.20527e-07,0.46,0.1,0
0.0245435,0.00758622,0.0262817,-0.000135166,0.00784398,-0.000980623,0,0,0.0479382,-0.0207458,0,-0.00509924,0,0,0,0.0263181,-0.000171517,0.00784398,-2.12298,0.0113302,0.0235291,4.16693e-07,0.48,0.1,0
0.0255015,0.0074378,0.0260781,-0.000472834,0.00768158,-0.000895428,0,0,0.0478309,-0.0212015,0,-0.00465622,0,0,0,0.0261083,-0.000502998,0.00768158,-1.92937,0.0110956,0.0236081,4.12184e-07,0.5,0.1,0
0.0264568,0.00731538,0.0258689,-0.00070628,0.0075488,-0.000718652,0,0,0.0476324,-0.0214632,0,-0.00373699,0,0,0,0.0258884,-0.0007257,0.0075488,-1.5479,0.0109038,0.0235915,4.05378e-07,0.52,0.1,0
0.0274068,0.00723106,0.0256716,-0.00076479,0.00747206,-0.000525429,0,0,0.0473189,-0.0214158,0,-0.00273223,0,0,0,0.0256821,-0.000775229,0.00747206,-1.13816,0.010793,0.0234479,3.96599e-07,0.54,0.1,0
0.0283495,0.00719006,0.0255081,-0.000718358,0.00743691,-0.000375427,0,0,0.046985,-0.0212037,0,-0.00195222,0,0,0,0.0255134,-0.000723731,0.00743691,-0.819957,0.0107422,0.0232567,3.88147e-07,0.56,0.1,0
0.0292862,0.00719253,0.0254219,-0.000668232,0.00742609,-0.000283368,0,0,0.046789,-0.0210452,0,-0.00147351,0,0,0,0.0254249,-0.000671309,0.00742609,-0.6222,0.0107266,0.0231359,3.83381e-07,0.58,0.1,0
0.0302211,0.00723768,0.0254425,-0.000680898,0.00742847,-0.000211736,0,0,0.0468364,-0.0210844,0,-0.00110103,0,0,0,0.0254442,-0.000682614,0.00742847,-0.464355,0.01073,0.0231621,3.84412e-07,0.6,0.1,0
0.0311597,0.00732626,0.0255687,-0.000756175,0.00744374,-0.000109658,0,0,0.0471248,-0.0213198,0,-0.000570219,0,0,0,0.0255691,-0.000756632,0.00744374,-0.238663,0.0107521,0.0233326,3.91162e-07,0.62,0.1,0
0.0321061,0.00746051,0.0257689,-0.000827134,0.00748252,6.01244e-05,0,0,0.0475445,-0.0216051,0,0.000312647,0,0,0,0.025769,-0.00082727,0.00748252,0.129525,0.0108081,0.023567,4.01387e-07,0.64,0.1,0
0.0330615,0.00764172,0.0259977,-0.000792478,0.00756157,0.000282341,0,0,0.047934,-0.0217205,0,0.00146817,0,0,0,0.0260007,-0.000795453,0.00756157,0.603749,0.0109223,0.0237474,4.11706e-07,0.66,0.1,0
0.0340234,0.00786605,0.0262317,-0.000583802,0.00769437,0.000497039,0,0,0.0481971,-0.0215232,0,0.0025846,0,0,0,0.0262409,-0.000593012,0.00769437,1.06152,0.0111141,0.0237983,4.19901e-07,0.68,0.1,0
0.0349893,0.00812284,0.0264516,-0.000274479,0.00785313,0.000629987,0,0,0.048356,-0.0211318,0,0.00327593,0,0,0,0.0264664,-0.000289321,0.00785313,1.34958,0.0113434,0.0237553,4.25736e-07,0.7,0.1,0
0.0359577,0.00839759,0.0266529,1.13316e-05,0.00799928,0.000671377,0,0,0.0484995,-0.0207687,0,0.00349116,0,0,0,0.0266699,-5.57662e-06,0.00799928,1.44265,0.0115545,0.0237091,4.30732e-07,0.72,0.1,0
0.0369293,0.0086768,0.0268474,0.000224923,0.0081217,0.000640783,0,0,0.0486869,-0.0205316,0,0.00333207,0,0,0,0.0268628,0.000209509,0.0081217,1.378,0.0117314,0.023709,4.36343e-07,0.74,0.1,0
0.0379052,0.00895027,0.0270333,0.000365588,0.00821968,0.0005695,0,0,0.0489155,-0.0204206,0,0.0029614,0,0,0,0.0270455,0.000353431,0.00821968,1.22283,0.0118729,0.0237566,4.42714e-07,0.76,0.1,0
0.0388859,0.00921049,0.0272092,0.000450392,0.00829789,0.000470655,0,0,0.0491695,-0.0204035,0,0.0024474,0,0,0,0.0272175,0.000442116,0.00829789,1.00735,0.0119858,0.0238389,4.49613e-07,0.78,0.1,0
0.0398719,0.00945208,0.0273688,0.000481134,0.00835497,0.000356649,0,0,0.0494359,-0.020472,0,0.00185457,0,0,0,0.0273735,0.000476404,0.00835497,0.759817,0.0120683,0.0239503,4.56789e-07,0.8,0.1,0
0.0408634,0.00967128,0.0275143,0.000465664,0.00839397,0.000239358,0,0,0.0497127,-0.0206136,0,0.00124466,0,0,0,0.0275164,0.000463546,0.00839397,0.506968,0.0121246,0.0240875,4.64271e-07,0.82,0.1,0
0.0418604,0.00986587,0.0276469,0.000413828,0.00841821,0.000130835,0,0,0.0499945,-0.0208114,0,0.000680343,0,0,0,0.0276475,0.0004132,0.00841821,0.275257,0.0121596,0.0242441,4.71948e-07,0.84,0.1,0
0.0428632,0.010035,0.027767,0.000338247,0.00843158,4.02826e-05,0,0,0.0502721,-0.0210427,0,0.00020947,0,0,0,0.0277671,0.000338188,0.00843158,0.0841459,0.0121789,0.0244101,4.79578e-07,0.86,0.1,0
0.0438713,0.0101786,0.0278737,0.000251328,0.00843751,-2.68442e-05,0,0,0.0505341,-0.0212841,0,-0.00013959,0,0,0,0.0278737,0.000251302,0.00843751,-0.0556816,0.0121875,0.0245742,4.86829e-07,0.88,0.1,0
0.0448845,0.0102976,0.0279656,0.000163781,0.00843883,-6.88457e-05,0,0,0.0507697,-0.0215151,0,-0.000357997,0,0,0,0.0279658,0.00016361,0.00843883,-0.14188,0.0121894,0.0247259,4.9338e-07,0.9,0.1,0
0.0459021,0.0103929,0.0280416,8.37772e-05,0.00843762,-8.69442e-05,0,0,0.0509704,-0.02172,0,-0.00045211,0,0,0,0.0280419,8.35069e-05,0.00843762,-0.178178,0.0121877,0.0248575,4.98973e-07,0.92,0.1,0
0.0469233,0.0104656,0.028101,1.70359e-05,0.0084354,-8.43583e-05,0,0,0.0511305,-0.0218877,0,-0.000438663,0,0,0,0.0281012,1.67825e-05,0.0084354,-0.172103,0.0121845,0.0249635,5.03437e-07,0.94,0.1,0
0.0479473,0.0105167,0.0281433,-3.27461e-05,0.00843318,-6.55271e-05,0,0,0.0512464,-0.0220114,0,-0.000340741,0,0,0,0.0281435,-3.28985e-05,0.00843318,-0.133248,0.0121813,0.0250408,5.0667e-07,0.96,0.1,0
0.0489732,0.0105471,0.0281687,-6.33674e-05,0.00843161,-3.55796e-05,0,0,0.0513165,-0.0220869,0,-0.000185014,0,0,0,0.0281688,-6.34122e-05,0.00843161,-0.0722071,0.012179,0.0250876,5.08623e-07,0.98,0.1,0
0.05,0.0105571,0.0281772,-7.36905e-05,0.00843104,9.66955e-05,0,0,0.0513399,-0.0221123,0,0.000502816,0,0,0,0.0281775,-7.40214e-05,0.00843104,0.196106,0.0121782,0.0251039,5.093e-07,1,0.1,0
0,0,0.0302862,0.0129798,0.0129798,0.00746326,0,0,0.0449966,-4.33681e-19,0,0.0388089,0,0,0,0.03306,0.0102059,0.0129798,20.3887,0.0187486,0.0216012,4.89015e-07,0,0.12,0
0.000899932,0.000776179,0.0301419,0.011193,0.0124005,0.00739048,0,0,0.0461278,-0.00313948,0,0.0384305,0,0,0,0.0326835,0.00865143,0.0124005,18.9778,0.0179118,0.0223941,5.22725e-07,0.02,0.12,0
0.00184511,0.00156467,0.0306405,0.00945256,0.0120279,0.00722398,0,0,0.0483928,-0.00669596,0,0.0375647,0,0,0,0.0328691,0.00722397,0.0120279,17.1449,0.0173737,0.0236126,5.82942e-07,0.04,0.12,0
0.00283564,0.0023449,0.0310548,0.00770658,0.0116284,0.00681286,0,0,0.0505085,-0.0101967,0,0.0354269,0,0,0,0.0328973,0.00586403,0.0116284,15.1337,0.0167966,0.0246616,6.3076e-07,0.06,0.12,0
0.00386545,0.00309581,0.0313283,0.0061395,0.0112403,0.00621232,0,0,0.0522287,-0.0132622,0,0.0323041,0,0,0,0.0327771,0.00469069,0.0112403,13.1277,0.016236,0.0254517,6.61496e-07,0.08,0.12,0
0.00492479,0.00380093,0.0314383,0.00483668,0.0108825,0.00551574,0,0,0.0534452,-0.0157192,0,0.0286818,0,0,0,0.0325367,0.00373836,0.0108825,11.2617,0.0157192,0.0259739,6.75699e-07,0.1,0.12,0
0.00600326,0.00445016,0.0313979,0.00380216,0.01056,0.00480737,0,0,0.0541785,-0.0175704,0,0.0249983,0,0,0,0.0322114,0.00298866,0.01056,9.60452,0.0152534,0.0262686,6.76821e-07,0.12,0.12,0
0.00709193,0.00503892,0.0312424,0.00300152,0.0102732,0.00414221,0,0,0.0545199,-0.0189063,0,0.0215395,0,0,0,0.0318374,0.0024065,0.0102732,8.17449,0.014839,0.026392,6.69034e-07,0.14,0.12,0
0.00818406,0.00556635,0.0310112,0.00239124,0.0100207,0.00354612,0,0,0.0545753,-0.0198367,0,0.0184398,0,0,0,0.0314441,0.00195841,0.0100207,6.95897,0.0144744,0.0263947,6.55867e-07,0.16,0.12,0
0.00927494,0.00603365,0.0307375,0.00193273,0.00980106,0.00302528,0,0,0.0544347,-0.0204577,0,0.0157315,0,0,0,0.0310518,0.00161842,0.00980106,5.93137,0.0141571,0.0263142,6.39812e-07,0.18,0.12,0
0.0103614,0.00644295,0.0304439,0.00159501,0.00961168,0.00257485,0,0,0.0541638,-0.0208433,0,0.0133892,0,0,0,0.0306719,0.001367,0.00961168,5.06051,0.0138835,0.0261753,6.22401e-07,0.2,0.12,0
0.0114415,0.00679661,0.0301444,0.0013543,0.0094496,0.00218479,0,0,0.0538064,-0.0210478,0,0.0113609,0,0,0,0.0303092,0.00118945,0.0094496,4.31507,0.0136494,0.0259934,6.04473e-07,0.22,0.12,0
0.0125137,0.00709683,0.0298458,0.00119226,0.00931141,0.00184309,0,0,0.0533894,-0.0211098,0,0.00958407,0,0,0,0.0299639,0.00107419,0.00931141,3.66532,0.0134498,0.0257778,5.86426e-07,0.24,0.12,0
0.0135771,0.0073455,0.0295508,0.00109413,0.00919348,0.00153744,0,0,0.052929,-0.0210583,0,0.00799468,0,0,0,0.0296336,0.00101131,0.00919348,3.08357,0.0132795,0.0255341,5.68413e-07,0.26,0.12,0
0.0146309,0.00754411,0.0292593,0.00104683,0.00909184,0.00125616,0,0,0.0524354,-0.020917,0,0.00653204,0,0,0,0.0293151,0.000991005,0.00909184,2.54438,0.0131327,0.0252672,5.50493e-07,0.28,0.12,0
0.0156745,0.00769379,0.0289703,0.00103703,0.00900218,0.00098897,0,0,0.051917,-0.0207094,0,0.00514264,0,0,0,0.0290052,0.00100206,0.00900218,2.02516,0.0130032,0.024983,5.32748e-07,0.3,0.12,0
0.0167075,0.00779545,0.0286824,0.00104946,0.00891957,0.000727907,0,0,0.0513835,-0.0204623,0,0.00378512,0,0,0,0.0287016,0.00103029,0.00891957,1.50789,0.0128838,0.0246908,5.15364e-07,0.32,0.12,0
0.0177298,0.00785,0.0283952,0.00106572,0.00883827,0.000468817,0,0,0.050848,-0.0202086,0,0.00243785,0,0,0,0.0284032,0.00105768,0.00883827,0.982483,0.0127664,0.0244039,4.98657e-07,0.34,0.12,0
0.0187415,0.00785868,0.0281073,0.00106428,0.00875147,0.000212959,0,0,0.0503251,-0.0199867,0,0.00110739,0,0,0,0.0281089,0.0010626,0.00875147,0.451158,0.012641,0.0241385,4.82991e-07,0.36,0.12,0
0.0197428,0.00782359,0.027816,0.00102368,0.00865191,-3.16968e-05,0,0,0.0498267,-0.0198334,0,-0.000164823,0,0,0,0.0278161,0.00102365,0.00865191,-0.0677839,0.0124972,0.0239091,4.68612e-07,0.38,0.12,0
0.0207345,0.00774819,0.0275133,0.00092544,0.00853163,-0.000252461,0,0,0.0493524,-0.0197761,0,-0.0013128,0,0,0,0.0275157,0.000923043,0.00853163,-0.543977,0.0123235,0.0237219,4.55358e-07,0.4,0.12,0
0.0217169,0.00763756,0.0271914,0.000764135,0.00838666,-0.000434357,0,0,0.0488923,-0.0198186,0,-0.00225866,0,0,0,0.0271985,0.000756998,0.00838666,-0.941371,0.0121141,0.0235717,4.42754e-07,0.42,0.12,0
0.0226902,0.0074987,0.026833,0.000531986,0.00820948,-0.000572501,0,0,0.048421,-0.0199615,0,-0.00297701,0,0,0,0.0268454,0.00051953,0.00820948,-1.24639,0.0118581,0.0234466,4.29907e-07,0.44,0.12,0
0.0236538,0.00733974,0.0264724,0.000253765,0.00801786,-0.000658505,0,0,0.0479819,-0.0201867,0,-0.00342423,0,0,0,0.026489,0.000237237,0.00801786,-1.43783,0.0115814,0.0233546,4.17844e-07,0.46,0.12,0
0.0246095,0.00717237,0.0260859,-0.000156662,0.00777878,-0.000689967,0,0,0.0475986,-0.0206322,0,-0.00358783,0,0,0,0.0261041,-0.00017479,0.00777878,-1.50503,0.011236,0.0233415,4.06686e-07,0.48,0.12,0
0.0255577,0.00701389,0.0256705,-0.000647103,0.00750703,-0.000581772,0,0,0.0472251,-0.0212008,0,-0.00302522,0,0,0,0.0256834,-0.000659957,0.00750703,-1.26574,0.0108435,0.0233565,3.94916e-07,0.5,0.12,0
0.0264985,0.00688638,0.0252499,-0.000944567,0.0072916,-0.000384355,0,0,0.0466916,-0.021414,0,-0.00199865,0,0,0,0.0252556,-0.000950205,0.0072916,-0.840468,0.0105323,0.0232096,3.79875e-07,0.52,0.12,0
0.0274254,0.0068051,0.0248578,-0.000908538,0.00718479,-0.000197518,0,0,0.0459499,-0.0210427,0,-0.00102709,0,0,0,0.0248594,-0.000910052,0.00718479,-0.439178,0.010378,0.0228252,3.61926e-07,0.54,0.12,0
0.0283365,0.00677091,0.0245457,-0.00071985,0.00714775,-0.000153347,0,0,0.0452346,-0.0204558,0,-0.000797406,0,0,0,0.0245466,-0.000720781,0.00714775,-0.347736,0.0103245,0.022395,3.46009e-07,0.56,0.12,0
0.0292348,0.00677823,0.0243557,-0.000620461,0.00712058,-0.000216638,0,0,0.0448114,-0.0201267,0,-0.00112652,0,0,0,0.0243576,-0.00062234,0.00712058,-0.496922,0.0102853,0.022148,3.36812e-07,0.58,0.12,0
0.030129,0.00682257,0.0243694,-0.000638394,0.0071193,-0.000313642,0,0,0.0448503,-0.02017,0,-0.00163094,0,0,0,0.0243733,-0.000642327,0.0071193,-0.718439,0.0102834,0.022178,3.37734e-07,0.6,0.12,0
0.0310288,0.0069047,0.0245853,-0.00077416,0.00714334,-0.000364904,0,0,0.0453491,-0.0205855,0,-0.0018975,0,0,0,0.0245905,-0.00077941,0.00714334,-0.824217,0.0103182,0.0224812,3.4866e-07,0.62,0.12,0
0.0319429,0.00703063,0.0249197,-0.000998852,0.00717625,-0.000296356,0,0,0.0461329,-0.0212553,0,-0.00154105,0,0,0,0.0249231,-0.00100224,0.00717625,-0.655013,0.0103657,0.022956,3.65965e-07,0.64,0.12,0
0.0328741,0.00720741,0.0253289,-0.00106821,0.0072782,-7.38482e-05,0,0,0.0469317,-0.0217006,0,-0.00038401,0,0,0,0.0253291,-0.00106841,0.0072782,-0.160288,0.010513,0.0233701,3.84853e-07,0.66,0.12,0
0.0338202,0.00743552,0.0257602,-0.000803667,0.00748696,0.000168931,0,0,0.0475104,-0.0215556,0,0.000878444,0,0,0,0.0257613,-0.000804741,0.00748696,0.36435,0.0108145,0.023542,4.00689e-07,0.68,0.12,0
0.0347745,0.00770102,0.0261775,-0.000353317,0.00774727,0.000333486,0,0,0.0479187,-0.0210615,0,0.00173413,0,0,0,0.0261817,-0.000357508,0.00774727,0.720042,0.0111905,0.0235568,4.13304e-07,0.7,0.12,0
0.0357369,0.00798339,0.0265558,1.05403e-05,0.00796989,0.000372512,0,0,0.0483233,-0.0206943,0,0.00193706,0,0,0,0.026561,5.31382e-06,0.00796989,0.803828,0.0115121,0.0236037,4.25292e-07,0.72,0.12,0
0.0367074,0.00826713,0.026896,0.000241236,0.00814118,0.000372584,0,0,0.0487626,-0.0205399,0,0.00193744,0,0,0,0.0269013,0.000236029,0.00814118,0.800679,0.0117595,0.023722,4.37748e-07,0.74,0.12,0
0.0376874,0.00854234,0.0272202,0.00042712,0.00829419,0.000334922,0,0,0.0492076,-0.0204544,0,0.0017416,0,0,0,0.0272244,0.000422934,0.00829419,0.716068,0.0119805,0.0238603,4.50311e-07,0.76,0.12,0
0.0386757,0.00880255,0.027492,0.000541491,0.00841004,0.000267149,0,0,0.049613,-0.0204582,0,0.00138918,0,0,0,0.0274946,0.000538843,0.00841004,0.567875,0.0121478,0.0240082,4.61729e-07,0.78,0.12,0
0.039672,0.00904231,0.0277281,0.000589334,0.00849523,0.000174513,0,0,0.0500054,-0.0205553,0,0.000907468,0,0,0,0.0277292,0.000588211,0.00849523,0.368415,0.0122709,0.0241775,4.72777e-07,0.8,0.12,0
0.040676,0.00925807,0.0279356,0.000572505,0.00855243,7.36672e-05,0,0,0.0503963,-0.0207478,0,0.00038307,0,0,0,0.0279358,0.000572307,0.00855243,0.154251,0.0123535,0.0243737,4.83825e-07,0.82,0.12,0
0.0416878,0.00944798,0.0281215,0.000505745,0.00858817,-1.9812e-05,0,0,0.0507867,-0.0210143,0,-0.000103022,0,0,0,0.0281215,0.000505731,0.00858817,-0.0411048,0.0124051,0.0245918,4.94944e-07,0.84,0.12,0
0.0427074,0.00961165,0.028287,0.000406813,0.00860813,-9.40485e-05,0,0,0.0511649,-0.0213234,0,-0.000489052,0,0,0,0.0282873,0.000406496,0.00860813,-0.193274,0.012434,0.0248181,5.05801e-07,0.86,0.12,0
0.0437344,0.00974971,0.0284313,0.000293587,0.00861746,-0.000143063,0,0,0.0515159,-0.0216421,0,-0.000743928,0,0,0,0.028432,0.000292859,0.00861746,-0.291304,0.0124474,0.0250372,5.15938e-07,0.88,0.12,0
0.0447681,0.00986333,0.0285532,0.000180476,0.00862009,-0.000165643,0,0,0.051826,-0.021943,0,-0.000861344,0,0,0,0.0285541,0.000179509,0.00862009,-0.334484,0.0124512,0.0252362,5.24927e-07,0.9,0.12,0
0.0458074,0.0099539,0.0286519,7.79535e-05,0.00861897,-0.000163815,0,0,0.0520857,-0.0222066,0,-0.000851836,0,0,0,0.0286529,7.70144e-05,0.00861897,-0.328462,0.0124496,0.0254057,5.32471e-07,0.92,0.12,0
0.0468515,0.0100228,0.0287277,-7.01993e-06,0.00861621,-0.000141414,0,0,0.0522899,-0.0224204,0,-0.000735352,0,0,0,0.0287284,-7.71586e-06,0.00861621,-0.281964,0.0124456,0.0255405,5.38403e-07,0.94,0.12,0
0.047899,0.0100711,0.028781,-7.01067e-05,0.00861328,-0.000103184,0,0,0.0524362,-0.0225768,0,-0.000536557,0,0,0,0.0287814,-7.04757e-05,0.00861328,-0.204911,0.0124414,0.0256378,5.4265e-07,0.96,0.12,0
0.0489489,0.0100997,0.0288127,-0.000108797,0.00861116,-5.42752e-05,0,0,0.0525239,-0.0226719,0,-0.000282231,0,0,0,0.0288128,-0.000108899,0.00861116,-0.107523,0.0124383,0.0256964,5.45196e-07,0.98,0.12,0
0.05,0.0101092,0.0288231,-0.000121822,0.00861039,9.11515e-05,0,0,0.0525531,-0.0227038,0,0.000473988,0,0,0,0.0288234,-0.00012211,0.00861039,0.18043,0.0124372,0.0257164,5.46066e-07,1,0.12,0
0,0,0.0299464,0.0128342,0.0128342,0.00689639,0,0,0.0444917,-2.1684e-19,0,0.0358612,0,0,0,0.0323797,0.0104009,0.0128342,19.4347,0.0185382,0.0208688,4.45461e-07,0,0.14,0
0.000889835,0.000717224,0.0298179,0.0112264,0.0123133,0.0068476,0,0,0.045512,-0.00282588,0,0.0356075,0,0,0,0.0320678,0.0089766,0.0123133,18.1884,0.0177859,0.0216168,4.77395e-07,0.02,0.14,0
0.00182048,0.00143987,0.0303004,0.00972101,0.0120064,0.00672408,0,0,0.0475643,-0.00594206,0,0.0349652,0,0,0,0.0323026,0.00771879,0.0120064,16.5819,0.0173426,0.0227451,5.32683e-07,0.04,0.14,0
0.00279241,0.0021544,0.0307292,0.00818907,0.0116755,0.0064298,0,0,0.0495397,-0.0090647,0,0.033435,0,0,0,0.0324344,0.0064839,0.0116755,14.8528,0.0168646,0.0237835,5.81517e-07,0.06,0.14,0
0.00380207,0.00284591,0.0310623,0.00675582,0.0113454,0.00598603,0,0,0.0512638,-0.011933,0,0.0311274,0,0,0,0.0324565,0.0053616,0.0113454,13.1112,0.0163879,0.0246538,6.1945e-07,0.08,0.14,0
0.00484296,0.00350148,0.0312752,0.00549949,0.0110324,0.00544482,0,0,0.0526312,-0.0143856,0,0.0283131,0,0,0,0.0323781,0.00439653,0.0110324,11.4515,0.0159357,0.0253244,6.45042e-07,0.1,0.14,0
0.00590732,0.00411177,0.0313661,0.00444828,0.0107443,0.00486404,0,0,0.0536166,-0.0163697,0,0.025293,0,0,0,0.032218,0.00359632,0.0107443,9.93492,0.0155196,0.0258013,6.59215e-07,0.12,0.14,0
0.00698762,0.00467127,0.0313505,0.0035961,0.010484,0.00429014,0,0,0.054253,-0.0179085,0,0.0223087,0,0,0,0.0319985,0.00294808,0.010484,8.58949,0.0151435,0.0261113,6.64095e-07,0.14,0.14,0
0.00807744,0.0051775,0.0312523,0.00292084,0.0102519,0.00375263,0,0,0.0546009,-0.0190608,0,0.0195137,0,0,0,0.0317409,0.00243222,0.0102519,7.41869,0.0148083,0.0262861,6.62049e-07,0.16,0.14,0
0.00917166,0.00563005,0.0310951,0.00239641,0.0100475,0.00326584,0,0,0.0547239,-0.0198927,0,0.0169824,0,0,0,0.031462,0.00202946,0.0100475,6.41092,0.014513,0.0263548,6.55113e-07,0.18,0.14,0
0.0102664,0.00602967,0.0308984,0.0019986,0.0098691,0.00283331,0,0,0.0546762,-0.0204633,0,0.0147332,0,0,0,0.0311735,0.00172345,0.0098691,5.54686,0.0142554,0.0263395,6.44801e-07,0.2,0.14,0
0.0113587,0.00637768,0.0306757,0.00170687,0.00971476,0.00245187,0,0,0.0544983,-0.0208205,0,0.0127497,0,0,0,0.0308817,0.00150082,0.00971476,4.80389,0.0140324,0.0262559,6.32117e-07,0.22,0.14,0
0.0124463,0.00667549,0.030435,0.00150426,0.00958179,0.00211458,0,0,0.0542184,-0.0210016,0,0.0109958,0,0,0,0.0305888,0.00135052,0.00958179,4.15835,0.0138404,0.0261144,6.17667e-07,0.24,0.14,0
0.0135274,0.0069244,0.0301804,0.00137633,0.00946701,0.0018125,0,0,0.0538547,-0.0210358,0,0.009425,0,0,0,0.030294,0.00126273,0.00946701,3.5865,0.0136746,0.0259219,6.01785e-07,0.26,0.14,0
0.0146005,0.00712538,0.0299127,0.00130972,0.00936671,0.00153584,0,0,0.0534195,-0.0209482,0,0.00798636,0,0,0,0.0299949,0.00122749,0.00936671,3.06476,0.0135297,0.025684,5.84675e-07,0.28,0.14,0
0.0156642,0.00727907,0.0296316,0.00129023,0.00927656,0.00127475,0,0,0.0529232,-0.0207645,0,0.00662871,0,0,0,0.0296889,0.001233,0.00927656,2.57015,0.0133995,0.0254077,5.66544e-07,0.3,0.14,0
0.0167174,0.00738577,0.0293372,0.00130061,0.00919135,0.0010205,0,0,0.0523793,-0.0205159,0,0.00530663,0,0,0,0.0293743,0.00126351,0.00919135,2.08184,0.0132764,0.025104,5.47739e-07,0.32,0.14,0
0.0177594,0.00744563,0.0290302,0.0013181,0.00910449,0.000767471,0,0,0.0518069,-0.0202446,0,0.00399085,0,0,0,0.0290514,0.00129686,0.00910449,1.58515,0.0131509,0.0247907,5.28825e-07,0.34,0.14,0
0.0187897,0.00745901,0.0287123,0.00131402,0.00900789,0.000516639,0,0,0.0512314,-0.0200041,0,0.00268652,0,0,0,0.028722,0.00130428,0.00900789,1.07989,0.0130114,0.0244921,5.10556e-07,0.36,0.14,0
0.0198086,0.00742712,0.0283808,0.00125489,0.00889072,0.000278402,0,0,0.0506743,-0.0198532,0,0.00144769,0,0,0,0.0283837,0.00125203,0.00889072,0.587962,0.0128421,0.0242328,4.9351e-07,0.38,0.14,0
0.0208167,0.00735277,0.0280293,0.00111694,0.00874388,7.51047e-05,0,0,0.0501422,-0.01983,0,0.000390544,0,0,0,0.0280295,0.00111673,0.00874388,0.159894,0.01263,0.0240251,4.77736e-07,0.4,0.14,0
0.0218143,0.00724119,0.0276273,0.000882692,0.00855301,-7.10101e-05,0,0,0.0495932,-0.0199428,0,-0.000369253,0,0,0,0.0276275,0.000882504,0.00855301,-0.152125,0.0123543,0.0238534,4.61805e-07,0.42,0.14,0
0.0228004,0.00709935,0.0271607,0.000585619,0.0083239,-0.00013493,0,0,0.0489757,-0.0201195,0,-0.000701637,0,0,0,0.0271614,0.000584934,0.0083239,-0.290899,0.0120234,0.0236754,4.44161e-07,0.44,0.14,0
0.0237734,0.00693714,0.0265274,0.000184135,0.00801348,-0.000148482,0,0,0.0481363,-0.0203563,0,-0.000772106,0,0,0,0.0265283,0.000183298,0.00801348,-0.322929,0.011575,0.0234325,4.20652e-07,0.46,0.14,0
0.0247259,0.00676093,0.0259506,-0.000126625,0.0077472,-8.4324e-05,0,0,0.0473289,-0.0204719,0,-0.000438485,0,0,0,0.0259509,-0.000126898,0.0077472,-0.18527,0.0111904,0.0231671,3.98809e-07,0.48,0.14,0
0.0256665,0.00658977,0.0251733,-0.000869518,0.00729114,-1.93813e-05,0,0,0.0464937,-0.0212177,0,-0.000100783,0,0,0,0.0251733,-0.000869533,0.00729114,-0.0426399,0.0105317,0.0230716,3.75071e-07,0.5,0.14,0
0.0265856,0.00645882,0.0243812,-0.00127363,0.00693228,0.000287064,0,0,0.0453673,-0.0213354,0,0.00149273,0,0,0,0.0243845,-0.00127684,0.00693228,0.641002,0.0100133,0.0226988,3.46613e-07,0.52,0.14,0
0.0274812,0.00638936,0.0238164,-0.000802735,0.00690411,0.000345509,0,0,0.043972,-0.0200378,0,0.00179665,0,0,0,0.0238213,-0.000807583,0.00690411,0.803887,0.0099726,0.0218202,3.17628e-07,0.54,0.14,0
0.0283445,0.00637183,0.0232411,-0.000523753,0.00681522,0.000169583,0,0,0.0427074,-0.0190813,0,0.000881833,0,0,0,0.0232424,-0.000524963,0.00681522,0.408827,0.0098442,0.0210786,2.91773e-07,0.56,0.14,0
0.0291895,0.00638746,0.0229708,-0.00040411,0.00677001,-0.000121914,0,0,0.0421221,-0.0186527,0,-0.00063395,0,0,0,0.0229714,-0.000404746,0.00677001,-0.298819,0.0097789,0.0207414,2.80284e-07,0.58,0.14,0
0.0300294,0.00643088,0.0229791,-0.000427685,0.00676543,-0.000430664,0,0,0.0421556,-0.0187021,0,-0.00223945,0,0,0,0.022987,-0.000435606,0.00676543,-1.05372,0.00977229,0.02078,2.81234e-07,0.6,0.14,0
0.0308757,0.00650284,0.0232661,-0.000595513,0.00680118,-0.000709216,0,0,0.0428088,-0.0192314,0,-0.00368792,0,0,0,0.0232872,-0.000616574,0.00680118,-1.70095,0.00982393,0.021192,2.946e-07,0.62,0.14,0
0.0317417,0.0066103,0.0238539,-0.000926737,0.00687815,-0.000857353,0,0,0.044137,-0.0202927,0,-0.00445824,0,0,0,0.0238835,-0.000956364,0.00687815,-1.97915,0.00993511,0.0219953,3.22004e-07,0.64,0.14,0
0.0326412,0.00677369,0.0244248,-0.00144567,0.00689372,-0.000755022,0,0,0.0455807,-0.0216824,0,-0.00392612,0,0,0,0.0244468,-0.00146769,0.00689372,-1.67027,0.0099576,0.0229083,3.51675e-07,0.66,0.14,0
0.033565,0.00700383,0.0252202,-0.00107701,0.00724296,-0.000394981,0,0,0.0467409,-0.0216319,0,-0.0020539,0,0,0,0.0252261,-0.00108294,0.00724296,-0.860317,0.0104621,0.0232904,3.80447e-07,0.68,0.14,0
0.0345108,0.00728038,0.0259877,-0.000390493,0.00767916,-0.000266323,0,0,0.0476022,-0.0209811,0,-0.00138488,0,0,0,0.0259904,-0.000393182,0.00767916,-0.578398,0.0110921,0.0234153,4.0492e-07,0.7,0.14,0
0.0354691,0.00756982,0.0265451,-0.000145778,0.00791979,-0.000119405,0,0,0.0484257,-0.0209705,0,-0.000620908,0,0,0,0.0265456,-0.000146312,0.00791979,-0.256314,0.0114397,0.0237112,4.27141e-07,0.72,0.14,0
0.0364479,0.00785521,0.0271486,0.000194558,0.00820295,-3.30234e-05,0,0,0.0492587,-0.0208218,0,-0.000171722,0,0,0,0.0271487,0.000194517,0.00820295,-0.0701971,0.0118487,0.023975,4.50733e-07,0.74,0.14,0
0.0374394,0.00813209,0.0275708,0.000431987,0.00840083,1.79348e-05,0,0,0.0498419,-0.020719,0,9.32608e-05,0,0,0,0.0275708,0.000431975,0.00840083,0.0378641,0.0121345,0.024161,4.67651e-07,0.76,0.14,0
0.0384415,0.00839216,0.0279152,0.000606255,0.00855642,3.583e-07,0,0,0.0503327,-0.0206704,0,1.86316e-06,0,0,0,0.0279152,0.000606255,0.00855642,0.000751735,0.0123593,0.0243284,4.82074e-07,0.78,0.14,0
0.0394527,0.00862987,0.0281963,0.000679679,0.00866279,-6.03287e-05,0,0,0.0507871,-0.0207561,0,-0.000313709,0,0,0,0.0281964,0.000679547,0.00866279,-0.125617,0.0125129,0.0245201,4.95434e-07,0.8,0.14,0
0.040473,0.00884136,0.0284447,0.00066468,0.00873281,-0.0001399,0,0,0.0512509,-0.0209771,0,-0.000727478,0,0,0,0.0284454,0.000663976,0.00873281,-0.288531,0.0126141,0.0247538,5.09118e-07,0.82,0.14,0
0.0415027,0.0090253,0.0286668,0.000580116,0.00877407,-0.000212671,0,0,0.051721,-0.0213043,0,-0.00110589,0,0,0,0.0286684,0.000578506,0.00877407,-0.433809,0.0126736,0.0250199,5.23077e-07,0.84,0.14,0
0.0425419,0.00918203,0.0288646,0.000454897,0.00879584,-0.000263839,0,0,0.0521787,-0.0216865,0,-0.00137196,0,0,0,0.028867,0.000452447,0.00879584,-0.532041,0.0127051,0.0252968,5.36757e-07,0.86,0.14,0
0.0435899,0.00931296,0.0290356,0.000313527,0.00880473,-0.000287385,0,0,0.0526002,-0.0220771,0,-0.0014944,0,0,0,0.0290384,0.000310651,0.00880473,-0.57321,0.0127179,0.0255621,5.49418e-07,0.88,0.14,0
0.0446459,0.00941989,0.0291781,0.000174485,0.00880576,-0.000283611,0,0,0.052968,-0.0224413,0,-0.00147478,0,0,0,0.0291808,0.000171712,0.00880576,-0.560195,0.0127194,0.0257994,5.605e-07,0.9,0.14,0
0.0457086,0.00950463,0.0292918,4.99862e-05,0.00880253,-0.000255873,0,0,0.0532721,-0.0227566,0,-0.00133054,0,0,0,0.029294,4.77474e-05,0.00880253,-0.501302,0.0127148,0.025999,5.69671e-07,0.92,0.14,0
0.0467768,0.00956878,0.0293778,-5.22927e-05,0.00879765,-0.000208748,0,0,0.0535084,-0.0230099,0,-0.00108549,0,0,0,0.0293793,-5.37733e-05,0.00879765,-0.406372,0.0127077,0.0261558,5.76795e-07,0.94,0.14,0
0.0478489,0.00961364,0.0294377,-0.00012777,0.00879297,-0.000147139,0,0,0.0536762,-0.0231939,0,-0.00076512,0,0,0,0.0294384,-0.000128502,0.00879297,-0.285135,0.012701,0.0262681,5.81848e-07,0.96,0.14,0
0.0489238,0.00964018,0.0294729,-0.000173886,0.0087897,-7.5949e-05,0,0,0.0537763,-0.0233053,0,-0.000394935,0,0,0,0.0294731,-0.000174081,0.0087897,-0.146779,0.0126962,0.0263354,5.84858e-07,0.98,0.14,0
0.05,0.00964896,0.0294845,-0.000189383,0.00878853,8.4436e-05,0,0,0.0538095,-0.0233426,0,0.000439067,0,0,0,0.0294847,-0.000189623,0.00878853,0.163031,0.0126945,0.0263582,5.85876e-07,1,0.14,0
0,0,0.0297621,0.0127552,0.0127552,0.00637638,0,0,0.044218,-4.33681e-19,0,0.0331572,0,0,0,0.0318872,0.01063,0.0127552,18.4323,0.0184242,0.0202783,4.12453e-07,0,0.16,0
0.00088436,0.000663144,0.0296417,0.0112617,0.012271,0.0063415,0,0,0.0451637,-0.00262421,0,0.0329758,0,0,0,0.0316173,0.00928609,0.012271,17.3037,0.0177248,0.0209985,4.43316e-07,0.02,0.16,0
0.00180655,0.00132698,0.0301084,0.00991194,0.0120061,0.00624165,0,0,0.047066,-0.00544485,0,0.0324566,0,0,0,0.0318817,0.00813868,0.0120061,15.8599,0.0173422,0.022065,4.95088e-07,0.04,0.16,0
0.002767,0.00198232,0.0305394,0.00853698,0.0117229,0.00602122,0,0,0.0489229,-0.00828346,0,0.0313104,0,0,0,0.0320794,0.00699699,0.0117229,14.3464,0.0169331,0.0230852,5.43672e-07,0.06,0.16,0
0.00376347,0.00261849,0.0309034,0.00722161,0.0114375,0.00568588,0,0,0.0506114,-0.0109614,0,0.0295666,0,0,0,0.0321978,0.00592721,0.0114375,12.8249,0.0165209,0.0239948,5.85352e-07,0.08,0.16,0
0.00479146,0.00322551,0.0311788,0.00602874,0.0111623,0.00526417,0,0,0.052043,-0.0133472,0,0.0273737,0,0,0,0.0322362,0.00497135,0.0111623,11.3576,0.0161233,0.0247569,6.18092e-07,0.1,0.16,0
0.00584519,0.00379537,0.0313576,0.00499185,0.0109048,0.00479397,0,0,0.0531772,-0.0153738,0,0.0249286,0,0,0,0.0322022,0.00414724,0.0109048,9.99192,0.0157514,0.0253607,6.41503e-07,0.12,0.16,0
0.00691855,0.00432258,0.0314446,0.0041195,0.0106692,0.00431089,0,0,0.054016,-0.0170293,0,0.0224166,0,0,0,0.0321086,0.00345554,0.0106692,8.7559,0.0154111,0.0258136,6.56345e-07,0.14,0.16,0
0.00800583,0.00480391,0.0314525,0.00340442,0.0104571,0.00384197,0,0,0.054588,-0.0183369,0,0.0199782,0,0,0,0.0319692,0.00288767,0.0104571,7.66031,0.0151046,0.0261324,6.63935e-07,0.16,0.16,0
0.00910207,0.00523794,0.0313966,0.00283188,0.0102685,0.00340427,0,0,0.0549329,-0.0193353,0,0.0177022,0,0,0,0.0317967,0.00243177,0.0102685,6.70329,0.0148323,0.026336,6.65678e-07,0.18,0.16,0
0.0102031,0.00562442,0.0312914,0.00238519,0.010103,0.00300617,0,0,0.0550898,-0.0200662,0,0.0156321,0,0,0,0.0316007,0.00207586,0.010103,5.87486,0.0145932,0.0264415,6.62792e-07,0.2,0.16,0
0.0113057,0.00596379,0.031148,0.00204841,0.00995893,0.00264962,0,0,0.0550917,-0.0205674,0,0.013778,0,0,0,0.0313873,0.00180912,0.00995893,5.16043,0.0143851,0.0264619,6.56202e-07,0.22,0.16,0
0.0124068,0.00625676,0.030974,0.00180729,0.00983439,0.00233211,0,0,0.054963,-0.0208705,0,0.012127,0,0,0,0.0311593,0.00162199,0.00983439,4.5428,0.0142052,0.0264069,6.46533e-07,0.24,0.16,0
0.0135042,0.00650407,0.0307731,0.00164899,0.00972663,0.00204819,0,0,0.0547208,-0.0210019,0,0.0106506,0,0,0,0.0309164,0.00150565,0.00972663,4.00313,0.0140496,0.0262829,6.34172e-07,0.26,0.16,0
0.0145956,0.00670618,0.0305463,0.0015611,0.00963222,0.00179031,0,0,0.0543766,-0.0209849,0,0.00930963,0,0,0,0.0306565,0.00145093,0.00963222,3.52112,0.0139132,0.0260952,6.19356e-07,0.28,0.16,0
0.0156792,0.00686321,0.0302931,0.00152992,0.00954689,0.00154949,0,0,0.05394,-0.0208441,0,0.00805734,0,0,0,0.0303763,0.00144669,0.00954689,3.0747,0.01379,0.0258495,6.02309e-07,0.3,0.16,0
0.0167532,0.00697482,0.0300132,0.00153797,0.00946536,0.00131594,0,0,0.0534245,-0.0206112,0,0.00684291,0,0,0,0.0300739,0.00147728,0.00946536,2.64034,0.0136722,0.0255567,5.83422e-07,0.32,0.16,0
0.0178162,0.00704021,0.0297096,0.00156016,0.00938094,0.00108129,0,0,0.0528546,-0.020334,0,0.00562269,0,0,0,0.0297511,0.00151869,0.00938094,2.19655,0.0135502,0.0252372,5.63487e-07,0.34,0.16,0
0.0188674,0.00705851,0.0293869,0.00155815,0.0092835,0.000843133,0,0,0.0522687,-0.0200859,0,0.00438429,0,0,0,0.0294124,0.00153263,0.0092835,1.73378,0.0134095,0.0249252,5.43738e-07,0.36,0.16,0
0.019907,0.00702946,0.0290522,0.00148547,0.0091613,0.000614828,0,0,0.0517163,-0.0199572,0,0.00319711,0,0,0,0.0290659,0.00147176,0.0091613,1.27704,0.013233,0.0246654,5.25712e-07,0.38,0.16,0
0.0209361,0.00695499,0.0286917,0.00128707,0.00899364,0.000426556,0,0,0.051215,-0.0200371,0,0.00221809,0,0,0,0.0286984,0.00128043,0.00899364,0.891526,0.0129908,0.0244899,5.09791e-07,0.4,0.16,0
0.0219556,0.00683985,0.0283008,0.000967366,0.00878046,0.000335506,0,0,0.050753,-0.0203141,0,0.00174463,0,0,0,0.028305,0.000963248,0.00878046,0.703138,0.0126829,0.0243914,4.9539e-07,0.42,0.16,0
0.0229662,0.00669392,0.0277626,0.000493282,0.00847677,0.000361894,0,0,0.0501432,-0.0207571,0,0.00188185,0,0,0,0.0277674,0.00048848,0.00847677,0.760199,0.0122442,0.0242908,4.76692e-07,0.44,0.16,0
0.0239613,0.00652549,0.0271315,6.55171e-05,0.00815909,0.000589196,0,0,0.0493281,-0.0210433,0,0.00306382,0,0,0,0.0271443,5.26971e-05,0.00815909,1.24648,0.0117854,0.0240843,4.53081e-07,0.46,0.16,0
0.0249393,0.0063535,0.0256845,-0.000790424,0.00746822,0.000817918,0,0,0.0473623,-0.0214725,0,0.00425317,0,0,0,0.0257097,-0.000815668,0.00746822,1.76785,0.0107874,0.023505,3.98477e-07,0.48,0.16,0
0.0258558,0.00616518,0.0244527,-0.00125442,0.00695948,0.00162326,0,0,0.0454823,-0.0213561,0,0.00844096,0,0,0,0.0245548,-0.00135652,0.00695948,3.59886,0.0100526,0.0229145,3.54845e-07,0.5,0.16,0
0.0267586,0.00603296,0.0233983,-0.000802635,0.00677871,0.00130884,0,0,0.043211,-0.0197115,0,0.00680598,0,0,0,0.0234689,-0.000873214,0.00677871,3.08668,0.00979147,0.0215598,3.04703e-07,0.52,0.16,0
0.0275842,0.00600359,0.0220235,-0.000376106,0.00649423,0.000978687,0,0,0.0403762,-0.0178629,0,0.00508917,0,0,0,0.0220662,-0.000418786,0.00649423,2.49703,0.00938055,0.0199481,2.48779e-07,0.54,0.16,0
0.0283737,0.00600766,0.0214444,-0.00015924,0.00638554,0.0004483,0,0,0.039153,-0.0170164,0,0.00233116,0,0,0,0.0214537,-0.000168538,0.00638554,1.18827,0.00922356,0.0192032,2.26031e-07,0.56,0.16,0
0.0291504,0.00603212,0.0212734,-5.20225e-05,0.00636642,-4.67231e-05,0,0,0.0387582,-0.016688,0,-0.00024296,0,0,0,0.0212735,-5.21249e-05,0.00636642,-0.125532,0.00919595,0.01895,2.19131e-07,0.58,0.16,0
0.029924,0.00607449,0.0212768,-8.10834e-05,0.00635871,-0.000517153,0,0,0.038787,-0.0167435,0,-0.0026892,0,0,0,0.0212893,-9.35982e-05,0.00635871,-1.38626,0.00918481,0.0189972,2.20073e-07,0.6,0.16,0
0.0307018,0.00613545,0.0214559,-0.000248277,0.00636227,-0.00100057,0,0,0.0392433,-0.0171874,0,-0.00520294,0,0,0,0.0215019,-0.000294306,0.00636227,-2.6339,0.00918995,0.0193467,2.28939e-07,0.62,0.16,0
0.0314937,0.00621892,0.0220488,-0.000529884,0.00645567,-0.00150349,0,0,0.0405421,-0.0181624,0,-0.00781813,0,0,0,0.0221484,-0.00062956,0.00645567,-3.79294,0.00932485,0.0201904,2.53947e-07,0.64,0.16,0
0.0323235,0.00634011,0.0234233,-0.00103827,0.0067155,-0.00178509,0,0,0.0434402,-0.0201598,0,-0.00928248,0,0,0,0.0235529,-0.00116785,0.0067155,-4.15187,0.00970017,0.0218719,3.11559e-07,0.66,0.16,0
0.0332313,0.00657024,0.0244795,-0.00152222,0.00688719,-0.00203433,0,0,0.0457401,-0.0218645,0,-0.0105785,0,0,0,0.0246377,-0.00168042,0.00688719,-4.44665,0.00994816,0.0232501,3.62539e-07,0.68,0.16,0
0.0341531,0.00686178,0.0256916,-0.0011405,0.00736533,-0.00114848,0,0,0.0476483,-0.0221152,0,-0.00597209,0,0,0,0.0257407,-0.00118957,0.00736533,-2.44643,0.0106388,0.0238336,4.05439e-07,0.7,0.16,0
0.0351373,0.00714457,0.0271145,-0.000360084,0.00802633,-0.000825788,0,0,0.0496293,-0.0218047,0,-0.0042941,0,0,0,0.0271393,-0.000384882,0.00802633,-1.72003,0.0115936,0.0244299,4.60582e-07,0.72,0.16,0
0.0361383,0.00743426,0.027701,-1.00004e-05,0.00830731,-0.000486719,0,0,0.0504237,-0.021625,0,-0.00253094,0,0,0,0.0277096,-1.85465e-05,0.00830731,-1.00594,0.0119994,0.0246436,4.83336e-07,0.74,0.16,0
0.0371542,0.00771358,0.0281858,0.000390531,0.00857291,-0.000334217,0,0,0.0509936,-0.0212742,0,-0.00173793,0,0,0,0.0281899,0.000386513,0.00857291,-0.688803,0.0123831,0.0247474,5.00964e-07,0.76,0.16,0
0.038178,0.00797573,0.0285149,0.000637613,0.00874574,-0.000286033,0,0,0.0513997,-0.0210811,0,-0.00148737,0,0,0,0.0285178,0.000634678,0.00874574,-0.587797,0.0126327,0.0248414,5.13658e-07,0.78,0.16,0
0.0392102,0.00821206,0.0288053,0.000757601,0.00886886,-0.000321652,0,0,0.0518347,-0.0210893,0,-0.00167259,0,0,0,0.028809,0.000753913,0.00886886,-0.656956,0.0128106,0.0250055,5.27167e-07,0.8,0.16,0
0.0402514,0.00841899,0.0290627,0.000739413,0.00894065,-0.000381882,0,0,0.0523175,-0.0213232,0,-0.00198579,0,0,0,0.0290679,0.000734265,0.00894065,-0.772329,0.0129143,0.0252512,5.4208e-07,0.82,0.16,0
0.0413029,0.00859581,0.0293017,0.000631536,0.00897996,-0.000432565,0,0,0.0528364,-0.0217059,0,-0.00224934,0,0,0,0.0293082,0.000625011,0.00897996,-0.864196,0.0129711,0.0255516,5.58156e-07,0.84,0.16,0
0.0423649,0.00874419,0.0295151,0.000475278,0.0089971,-0.000455434,0,0,0.0533467,-0.0221568,0,-0.00236825,0,0,0,0.0295222,0.000468137,0.0089971,-0.89828,0.0129958,0.0258666,5.74022e-07,0.86,0.16,0
0.0434368,0.00886662,0.0296982,0.000304602,0.00900084,-0.000447554,0,0,0.0538131,-0.0226102,0,-0.00232728,0,0,0,0.029705,0.000297789,0.00900084,-0.872131,0.0130012,0.0261648,5.88567e-07,0.88,0.16,0
0.0445174,0.00896568,0.0298482,0.000140508,0.00899662,-0.000412226,0,0,0.0542142,-0.0230259,0,-0.00214358,0,0,0,0.0298539,0.000134789,0.00899662,-0.794837,0.0129951,0.0264271,6.01084e-07,0.9,0.16,0
0.0456053,0.00904364,0.0299659,-4.1735e-06,0.00898851,-0.00035466,0,0,0.0545411,-0.023381,0,-0.00184423,0,0,0,0.0299701,-8.36989e-06,0.00898851,-0.677901,0.0129834,0.0266447,6.11281e-07,0.92,0.16,0
0.0466991,0.00910237,0.0300535,-0.000121792,0.00897951,-0.000280071,0,0,0.0547923,-0.0236634,0,-0.00145637,0,0,0,0.0300561,-0.000124391,0.00897951,-0.531729,0.0129704,0.0268138,6.19099e-07,0.94,0.16,0
0.047797,0.00914332,0.0301137,-0.000207982,0.00897173,-0.000193252,0,0,0.0549692,-0.0238672,0,-0.00100491,0,0,0,0.030115,-0.000209214,0.00897173,-0.365148,0.0129592,0.026934,6.24592e-07,0.96,0.16,0
0.0488978,0.00916748,0.0301489,-0.000260416,0.00896655,-9.85533e-05,0,0,0.0550742,-0.0239901,0,-0.000512477,0,0,0,0.0301492,-0.000260736,0.00896655,-0.185687,0.0129517,0.0270057,6.27844e-07,0.98,0.16,0
0.05,0.00917547,0.0301605,-0.000278,0.00896474,7.68189e-05,0,0,0.0551089,-0.0240311,0,0.000399458,0,0,0,0.0301607,-0.000278194,0.00896474,0.144599,0.0129491,0.0270298,6.28936e-07,1,0.16,0
0,0,0.0296788,0.0127195,0.0127195,0.00588707,0,0,0.0440942,3.25261e-19,0,0.0306128,0,0,0,0.031522,0.0108762,0.0127195,17.3853,0.0183726,0.0197887,3.8637e-07,0,0.18,0
0.000881884,0.000612256,0.0295626,0.0113009,0.0122591,0.00586087,0,0,0.0449893,-0.00249125,0,0.0304765,0,0,0,0.0312818,0.00958175,0.0122591,16.3477,0.0177075,0.020493,4.16691e-07,0.02,0.18,0
0.00179957,0.00122208,0.0300167,0.0100571,0.0120221,0.00577573,0,0,0.0467858,-0.00510906,0,0.0300338,0,0,0,0.0315675,0.00850628,0.0120221,15.0299,0.0173653,0.0215198,4.66123e-07,0.04,0.18,0
0.00275332,0.00182306,0.0304455,0.00879683,0.0117727,0.00560426,0,0,0.0485493,-0.00773725,0,0.0291421,0,0,0,0.0318103,0.00743208,0.0117727,13.6863,0.017005,0.0225238,5.14178e-07,0.06,0.18,0
0.00374154,0.00240746,0.0308262,0.00757806,0.0115213,0.00534526,0,0,0.0501928,-0.0102524,0,0.0277953,0,0,0,0.0319963,0.00640796,0.0115213,12.3475,0.0166418,0.0234535,5.57895e-07,0.08,0.18,0
0.00476103,0.00296759,0.0311409,0.00644889,0.0112769,0.00501394,0,0,0.0516463,-0.0125529,0,0.0260725,0,0,0,0.0321202,0.0054696,0.0112769,11.0515,0.0162889,0.0242736,5.95227e-07,0.1,0.18,0
0.00580739,0.00349682,0.0313801,0.00544061,0.0110462,0.00463467,0,0,0.052868,-0.0145745,0,0.0241003,0,0,0,0.0321833,0.00463739,0.0110462,9.83205,0.0159556,0.0249662,6.25208e-07,0.12,0.18,0
0.00687575,0.0039901,0.0315429,0.00456766,0.0108332,0.0042335,0,0,0.0538454,-0.0162903,0,0.0220142,0,0,0,0.0321917,0.00391885,0.0108332,8.71302,0.0156479,0.0255279,6.47786e-07,0.14,0.18,0
0.00796121,0.00444402,0.0316352,0.00383162,0.01064,0.00383303,0,0,0.0545874,-0.0177019,0,0.0199317,0,0,0,0.0321539,0.00331287,0.01064,7.70735,0.0153689,0.0259648,6.63509e-07,0.16,0.18,0
0.00905924,0.00485663,0.031666,0.00322621,0.0104677,0.00344995,0,0,0.0551157,-0.0188278,0,0.0179398,0,0,0,0.0320785,0.00281369,0.0104677,6.81865,0.01512,0.0262873,6.73196e-07,0.18,0.18,0
0.0101658,0.00522702,0.0316452,0.00274142,0.010316,0.00309483,0,0,0.055456,-0.0196939,0,0.0160931,0,0,0,0.0319729,0.00241376,0.010316,6.04358,0.0149009,0.0265067,6.77694e-07,0.2,0.18,0
0.0112775,0.00555498,0.0315813,0.0023661,0.0101842,0.00277287,0,0,0.0556323,-0.0203271,0,0.0144189,0,0,0,0.0318421,0.00210525,0.0101842,5.37413,0.0147105,0.0266328,6.77726e-07,0.22,0.18,0
0.0123911,0.00584067,0.0314802,0.00208934,0.0100709,0.00248507,0,0,0.0556643,-0.020752,0,0.0129224,0,0,0,0.0316889,0.0018807,0.0100709,4.7991,0.0145468,0.0266734,6.73829e-07,0.24,0.18,0
0.0135041,0.00608432,0.0313452,0.00190065,0.00997375,0.00222915,0,0,0.0555657,-0.0209901,0,0.0115916,0,0,0,0.031513,0.00173285,0.00997375,4.30498,0.0144065,0.0266337,6.66344e-07,0.26,0.18,0
0.0146138,0.00628598,0.0311766,0.00178951,0.00988983,0.00200013,0,0,0.0553456,-0.0210608,0,0.0104007,0,0,0,0.0313121,0.001654,0.00988983,3.87582,0.0142853,0.0265174,6.55461e-07,0.28,0.18,0
0.0157179,0.00644531,0.0309728,0.00174396,0.00981502,0.00179045,0,0,0.0550102,-0.0209848,0,0.00931035,0,0,0,0.031082,0.0016347,0.00981502,3.49233,0.0141773,0.0263282,6.41305e-07,0.3,0.18,0
0.0168142,0.00656132,0.0307318,0.00174823,0.009744,0.00158982,0,0,0.0545682,-0.020789,0,0.00826708,0,0,0,0.0308187,0.00166128,0.009744,3.13031,0.0140747,0.0260733,6.24116e-07,0.32,0.18,0
0.0179006,0.00663227,0.0304555,0.0017784,0.00967018,0.00138549,0,0,0.0540419,-0.0205186,0,0.00720457,0,0,0,0.0305223,0.00171162,0.00967018,2.7596,0.013968,0.0257702,6.04625e-07,0.34,0.18,0
0.0189758,0.00665557,0.0301568,0.00179373,0.00958517,0.00116768,0,0,0.0534863,-0.0202577,0,0.00607191,0,0,0,0.0302048,0.00174574,0.00958517,2.35349,0.0138452,0.0254612,5.84678e-07,0.36,0.18,0
0.0200401,0.00662884,0.0298448,0.00171505,0.00946795,0.000941092,0,0,0.0529798,-0.0201575,0,0.00489368,0,0,0,0.0298762,0.0016836,0.00946795,1.914,0.0136759,0.0252182,5.66839e-07,0.38,0.18,0
0.021095,0.00655129,0.0295486,0.00147448,0.00930692,0.000757051,0,0,0.0526283,-0.0203643,0,0.00393666,0,0,0,0.029569,0.00145408,0.00930692,1.54355,0.0134433,0.0251263,5.54488e-07,0.4,0.18,0
0.0221452,0.00642863,0.029192,0.000966281,0.00904747,0.000675866,0,0,0.0523757,-0.0210111,0,0.0035145,0,0,0,0.0292081,0.000950107,0.00904747,1.3709,0.0130686,0.0252045,5.4531e-07,0.42,0.18,0
0.0231901,0.00626907,0.0289017,0.000413239,0.00879448,0.000846265,0,0,0.0522788,-0.0217912,0,0.00440058,0,0,0,0.0289268,0.000388123,0.00879448,1.7,0.0127031,0.0254011,5.41466e-07,0.44,0.18,0
0.0242363,0.00609541,0.0281694,-0.000497488,0.00830157,0.00113506,0,0,0.0516563,-0.0228775,0,0.00590229,0,0,0,0.0282143,-0.00054236,0.00830157,2.26389,0.0119912,0.0255115,5.20168e-07,0.46,0.18,0
0.0252563,0.00590203,0.0283588,-0.000763659,0.00827855,0.00205771,0,0,0.0522087,-0.0235097,0,0.0107001,0,0,0,0.0285035,-0.000908332,0.00827855,4.02171,0.0119579,0.0260625,5.43082e-07,0.48,0.18,0
0.0263247,0.00573552,0.031392,-0.00153962,0.00895573,0.00220731,0,0,0.0409652,-0.0186621,0,0.00871875,0,0,0,0.031549,-0.00169654,0.00895573,4.02682,0.012936,0.0294082,8.25107e-07,0.5,0.18,0
0.0270195,0.00567036,0.0283758,-0.0003953,0.00839414,0.00163992,0,0,0.0346348,-0.0159588,0,0.00714498,0,0,0,0.0285105,-0.000530081,0.00839414,3.89731,0.0121249,0.0257789,7.09947e-07,0.52,0.18,0
0.0277101,0.00567484,0.0286298,-1.22569e-05,0.00858528,0.00106975,0,0,0.0347439,-0.0152861,0,0.0044845,0,0,0,0.0286824,-6.48054e-05,0.00858528,2.52701,0.012401,0.0255491,7.15037e-07,0.54,0.18,0
0.0284092,0.00569117,0.0290205,0.000268465,0.00878669,0.000437949,0,0,0.0350719,-0.0150298,0,0.00186485,0,0,0,0.0290298,0.000259174,0.00878669,1.05624,0.0126919,0.0255972,7.34032e-07,0.56,0.18,0
0.029113,0.00571994,0.0291928,0.000362537,0.0088666,-5.60783e-05,0,0,0.0352321,-0.0149576,0,-0.000175934,0,0,0,0.0291929,0.00036242,0.0088666,-0.100849,0.0128073,0.0256593,7.43901e-07,0.58,0.18,0
0.0298185,0.00576114,0.0291985,0.000330441,0.00885867,-0.000511827,0,0,0.0352556,-0.0150036,0,-0.00205327,0,0,0,0.0292092,0.000319693,0.00885867,-1.16333,0.0127959,0.0257079,7.45942e-07,0.6,0.18,0
0.0305232,0.00581534,0.0290399,0.000170556,0.00876314,-0.000995992,0,0,0.0351464,-0.0151717,0,-0.00405606,0,0,0,0.0290819,0.000128523,0.00876314,-2.28523,0.0126579,0.025748,7.40369e-07,0.62,0.18,0
0.0312244,0.0058838,0.0286736,-0.000181399,0.00854767,-0.00160844,0,0,0.034885,-0.0155367,0,-0.00659939,0,0,0,0.0287842,-0.000292008,0.00854767,-3.67708,0.0123466,0.0258221,7.2657e-07,0.64,0.18,0
0.0319186,0.0059673,0.0284889,-0.000632003,0.00835707,-0.0021253,0,0,0.0348952,-0.0163459,0,-0.0090534,0,0,0,0.028696,-0.000839126,0.00835707,-4.85835,0.0120713,0.0261937,7.28916e-07,0.66,0.18,0
0.0326202,0.00612925,0.0315163,-0.00195307,0.00886897,-0.00264098,0,0,0.0413437,-0.0192284,0,-0.0103093,0,0,0,0.0317334,-0.00217021,0.00886897,-4.696,0.0128107,0.0299553,8.49526e-07,0.68,0.18,0
0.0336976,0.00639578,0.0284044,-0.00117975,0.0081674,-0.00234224,0,0,0.0526162,-0.0243026,0,-0.0121797,0,0,0,0.0285887,-0.00136404,0.0081674,-4.49888,0.0117974,0.0265051,5.56223e-07,0.7,0.18,0
0.0347248,0.00669763,0.0281327,-0.00102328,0.00813284,-0.00132389,0,0,0.0519998,-0.0238059,0,-0.00688424,0,0,0,0.0281927,-0.00108327,0.00813284,-2.59452,0.0117474,0.025927,5.28825e-07,0.72,0.18,0
0.0357776,0.00699021,0.028805,-0.000211621,0.00857801,-0.000918898,0,0,0.0525901,-0.022853,0,-0.00477827,0,0,0,0.028834,-0.000240691,0.00857801,-1.81202,0.0123905,0.0258207,5.49038e-07,0.74,0.18,0
0.0368284,0.00728112,0.0290369,0.000254498,0.00878742,-0.000615922,0,0,0.0526486,-0.0221856,0,-0.0032028,0,0,0,0.0290501,0.000241324,0.00878742,-1.22534,0.0126929,0.0256277,5.51532e-07,0.76,0.18,0
0.0378836,0.00754891,0.0293308,0.000677813,0.0090026,-0.000550987,0,0,0.0528534,-0.0216444,0,-0.00286513,0,0,0,0.0293414,0.000667221,0.0090026,-1.10123,0.0130037,0.0255476,5.5915e-07,0.78,0.18,0
0.0389426,0.0077863,0.0295621,0.000828176,0.00911709,-0.000577627,0,0,0.0531571,-0.0215512,0,-0.00300366,0,0,0,0.0295737,0.000816569,0.00911709,-1.15118,0.0131691,0.0256354,5.69319e-07,0.8,0.18,0
0.0400099,0.00798844,0.0298073,0.000799799,0.00918212,-0.00063273,0,0,0.0536254,-0.021794,0,-0.0032902,0,0,0,0.0298211,0.000786004,0.00918212,-1.24898,0.0132631,0.0258795,5.84574e-07,0.82,0.18,0
0.0410876,0.00815706,0.0300393,0.000653363,0.00920779,-0.000660567,0,0,0.0541619,-0.0222415,0,-0.00343495,0,0,0,0.0300541,0.000638522,0.00920779,-1.28709,0.0133001,0.0262038,6.01921e-07,0.84,0.18,0
0.0421763,0.00829576,0.0302495,0.00046199,0.00921345,-0.000650541,0,0,0.0546938,-0.0227538,0,-0.00338281,0,0,0,0.0302637,0.000447789,0.00921345,-1.25051,0.0133083,0.0265419,6.19108e-07,0.86,0.18,0
0.0432753,0.00840855,0.0304257,0.000262646,0.00920649,-0.000606854,0,0,0.0551698,-0.023254,0,-0.00315564,0,0,0,0.0304379,0.000250442,0.00920649,-1.15212,0.0132983,0.0268539,6.34468e-07,0.88,0.18,0
0.0443831,0.00849886,0.030566,7.5965e-05,0.00919258,-0.000537478,0,0,0.0555708,-0.0237032,0,-0.00279489,0,0,0,0.0305755,6.64933e-05,0.00919258,-1.00959,0.0132782,0.027123,6.47367e-07,0.9,0.18,0
0.0454982,0.00856939,0.0306735,-8.59017e-05,0.00917627,-0.00044919,0,0,0.0558927,-0.0240817,0,-0.00233579,0,0,0,0.03068,-9.246e-05,0.00917627,-0.836473,0.0132546,0.0273429,6.57677e-07,0.92,0.18,0
0.0466188,0.00862224,0.0307521,-0.000216018,0.00916082,-0.00034737,0,0,0.0561373,-0.0243798,0,-0.00180633,0,0,0,0.030756,-0.000219914,0.00916082,-0.642581,0.0132323,0.0275123,6.65473e-07,0.94,0.18,0
0.0477436,0.00865896,0.0308054,-0.000310642,0.00914843,-0.000236312,0,0,0.0563081,-0.0245936,0,-0.00122882,0,0,0,0.0308072,-0.000312437,0.00914843,-0.435102,0.0132144,0.0276319,6.70895e-07,0.96,0.18,0
0.0488712,0.00868058,0.0308362,-0.000367933,0.00914049,-0.000119525,0,0,0.0564089,-0.0247219,0,-0.000621527,0,0,0,0.0308367,-0.000368391,0.00914049,-0.219462,0.0132029,0.0277029,6.74083e-07,0.98,0.18,0
0.05,0.00868772,0.0308463,-0.000387101,0.00913776,6.86611e-05,0,0,0.0564422,-0.0247646,0,0.000357037,0,0,0,0.0308465,-0.000387252,0.00913776,0.125954,0.013199,0.0277267,6.75148e-07,1,0.18,0
0,0,0.0296606,0.0127117,0.0127117,0.00541821,0,0,0.0440672,-1.0842e-19,0,0.0281747,0,0,0,0.0312446,0.0111276,0.0127117,16.2966,0.0183613,0.0193736,3.65062e-07,0,0.2,0
0.000881343,0.000563494,0.0295467,0.0113429,0.0122669,0.00539775,0,0,0.0449275,-0.00240229,0,0.0280683,0,0,0,0.0310269,0.00986275,0.0122669,15.3347,0.0177188,0.0200703,3.95213e-07,0.02,0.2,0
0.0017971,0.00112262,0.0299912,0.0101731,0.0120493,0.00532305,0,0,0.0466491,-0.00487822,0,0.0276798,0,0,0,0.0313305,0.00883381,0.0120493,14.1221,0.0174045,0.0210737,4.4318e-07,0.04,0.2,0
0.00274731,0.00167283,0.030417,0.00899709,0.0118242,0.00518562,0,0,0.0483412,-0.00735056,0,0.0269652,0,0,0,0.0316064,0.00780773,0.0118242,12.9178,0.0170794,0.0220663,4.90777e-07,0.06,0.2,0
0.00373075,0.0022084,0.0308073,0.00785517,0.0115988,0.00498145,0,0,0.0499423,-0.00973331,0,0.0259035,0,0,0,0.0318419,0.00682065,0.0115988,11.7322,0.0167538,0.0230073,5.35684e-07,0.08,0.2,0
0.004745,0.00272339,0.0311481,0.00678331,0.0113794,0.00471829,0,0,0.0513986,-0.0119499,0,0.0245351,0,0,0,0.0320299,0.00590152,0.0113794,10.5858,0.0164369,0.0238657,5.76073e-07,0.1,0.2,0
0.00578669,0.00321239,0.0314302,0.0058081,0.0111715,0.00441172,0,0,0.0526727,-0.0139448,0,0.022941,0,0,0,0.0321686,0.00506975,0.0111715,9.50103,0.0161366,0.0246217,6.10802e-07,0.12,0.2,0
0.00685191,0.00367097,0.0316505,0.00494524,0.0109787,0.00408047,0,0,0.0537467,-0.0156871,0,0.0212184,0,0,0,0.0322601,0.00433567,0.0109787,8.49638,0.0158582,0.0252666,6.39398e-07,0.14,0.2,0
0.00793656,0.00409584,0.0318107,0.00420085,0.0108035,0.00374258,0,0,0.0546189,-0.0171668,0,0.0194614,0,0,0,0.0323091,0.00370253,0.0108035,7.58426,0.015605,0.0257997,6.61912e-07,0.16,0.2,0
0.00903666,0.00448483,0.0319159,0.00357422,0.010647,0.00341305,0,0,0.055299,-0.0183893,0,0.0177479,0,0,0,0.0323211,0.003169,0.010647,6.77089,0.015379,0.0262253,6.78718e-07,0.18,0.2,0
0.0101485,0.00483666,0.0319724,0.00306048,0.0105099,0.00310288,0,0,0.0558025,-0.0193684,0,0.016135,0,0,0,0.0323016,0.00273123,0.0105099,6.05719,0.0151809,0.0265499,6.90326e-07,0.2,0.2,0
0.0112688,0.0051507,0.0319864,0.00265277,0.0103917,0.00281907,0,0,0.0561461,-0.0201213,0,0.0146592,0,0,0,0.0322548,0.0023843,0.0103917,5.44,0.0150103,0.0267803,6.97241e-07,0.22,0.2,0
0.0123944,0.00542669,0.0319627,0.00234347,0.0102919,0.00256508,0,0,0.0563442,-0.0206658,0,0.0133384,0,0,0,0.0321832,0.00212297,0.0102919,4.91318,0.014866,0.0269219,6.99877e-07,0.24,0.2,0
0.0135225,0.00566446,0.0319041,0.00212478,0.0102087,0.0023413,0,0,0.0564082,-0.0210181,0,0.0121748,0,0,0,0.0320871,0.00194183,0.0102087,4.46811,0.0147459,0.0269791,6.98509e-07,0.26,0.2,0
0.0146507,0.00586374,0.0318108,0.0019885,0.0101398,0.00214537,0,0,0.0563447,-0.0211934,0,0.0111559,0,0,0,0.0319644,0.00183495,0.0101398,4.09368,0.0146464,0.0269543,6.93269e-07,0.28,0.2,0
0.0157763,0.00602382,0.0316804,0.00192509,0.0100817,0.00197199,0,0,0.0561568,-0.0212071,0,0.0102544,0,0,0,0.0318106,0.00179497,0.0100817,3.77519,0.0145624,0.0268491,6.84157e-07,0.3,0.2,0
0.016897,0.00614326,0.0315082,0.00192184,0.010029,0.00181197,0,0,0.055846,-0.0210787,0,0.00942225,0,0,0,0.0316188,0.00181128,0.010029,3.49159,0.0144864,0.0266659,6.71129e-07,0.32,0.2,0
0.0180102,0.00621947,0.0312897,0.00195883,0.00997457,0.0016502,0,0,0.0554194,-0.0208409,0,0.00858105,0,0,0,0.0313823,0.00186628,0.00997457,3.21004,0.0144077,0.0264124,6.54361e-07,0.34,0.2,0
0.0191137,0.0062482,0.0310346,0.00200247,0.00991113,0.00146311,0,0,0.0549211,-0.0205625,0,0.00760816,0,0,0,0.0311082,0.00192892,0.00991113,2.87776,0.0143161,0.0261195,6.35297e-07,0.36,0.2,0
0.020207,0.00622316,0.030793,0.00197788,0.00983126,0.00123815,0,0,0.0545005,-0.0204188,0,0.00643838,0,0,0,0.0308461,0.00192478,0.00983126,2.4559,0.0142007,0.0258899,6.19063e-07,0.38,0.2,0
0.0212938,0.00614042,0.0305373,0.00165855,0.00965875,0.00100069,0,0,0.0542842,-0.0208005,0,0.00520359,0,0,0,0.0305719,0.00162391,0.00965875,1.98221,0.0139515,0.0258835,6.09843e-07,0.4,0.2,0
0.0223784,0.0059994,0.0304279,0.00107273,0.0094502,0.000938278,0,0,0.0545421,-0.0217814,0,0.00487905,0,0,0,0.0304579,0.00104277,0.0094502,1.82885,0.0136503,0.0262417,6.17097e-07,0.42,0.2,0
0.0234754,0.00582227,0.0299909,-8.71784e-05,0.00897111,0.00102009,0,0,0.0546514,-0.0235516,0,0.00530449,0,0,0,0.0300254,-0.000121735,0.00897111,1.94021,0.0129583,0.0267845,6.17153e-07,0.44,0.2,0
0.0245644,0.00561039,0.0306945,-0.000551657,0.00904286,0.00174786,0,0,0.0562943,-0.0249457,0,0.00908888,0,0,0,0.030792,-0.000649126,0.00904286,3.19176,0.0130619,0.0278882,6.77429e-07,0.46,0.2,0
0.0257272,0.00541311,0.0351293,-0.000687592,0.0103325,0.00162249,0,0,0.0451466,-0.0198651,0,0.00677559,0,0,0,0.035216,-0.000774289,0.0103325,2.81824,0.0149248,0.0319212,1.12985e-06,0.48,0.2,0
0.0265002,0.00539049,0.0283338,-0.00103027,0.00819107,0.000799922,0,0,0.0358482,-0.0163007,0,0.00399123,0,0,0,0.0283841,-0.00108054,0.00819107,2.04667,0.0118315,0.0260951,6.47139e-07,0.5,0.2,0
0.0271051,0.00539461,0.033922,-0.000501484,0.0100261,0.000607506,0,0,0.0310646,-0.0136859,0,0.00157952,0,0,0,0.0339327,-0.000512202,0.0100261,1.01074,0.0144822,0.0305698,9.01095e-07,0.52,0.2,0
0.0277428,0.00539214,0.0357412,0.000187074,0.0107785,0.000273211,0,0,0.0324516,-0.0137688,0,0.000710349,0,0,0,0.0357433,0.000184974,0.0107785,0.440247,0.0155689,0.0316217,1.03087e-06,0.54,0.2,0
0.0284032,0.00540647,0.0367725,0.000511152,0.0111851,7.07631e-05,0,0,0.0332636,-0.0138761,0,0.000183984,0,0,0,0.0367726,0.000511014,0.0111851,0.111811,0.0161562,0.0322766,1.11176e-06,0.56,0.2,0
0.0290733,0.00543382,0.0371616,0.000601022,0.0113288,-0.000165541,0,0,0.0335826,-0.0139461,0,-0.000430406,0,0,0,0.0371623,0.000600272,0.0113288,-0.25942,0.0163638,0.0325519,1.14458e-06,0.58,0.2,0
0.0297465,0.00547435,0.037152,0.000561084,0.0113139,-0.000396831,0,0,0.0335895,-0.0139787,0,-0.00103176,0,0,0,0.0371563,0.000556781,0.0113139,-0.621278,0.0163424,0.0325812,1.14553e-06,0.6,0.2,0
0.0304169,0.00552858,0.0367412,0.000388198,0.0111388,-0.000622956,0,0,0.0332831,-0.0139758,0,-0.00161969,0,0,0,0.0367519,0.000377526,0.0111388,-0.981453,0.0160894,0.0323646,1.11436e-06,0.62,0.2,0
0.0310778,0.00559745,0.0356727,-3.3218e-05,0.0106919,-0.000802405,0,0,0.0324752,-0.0139426,0,-0.00208625,0,0,0,0.0356908,-5.1241e-05,0.0106919,-1.28672,0.0154438,0.0317636,1.03367e-06,0.64,0.2,0
0.0317159,0.00568627,0.0338002,-0.000842362,0.00988734,-0.00110295,0,0,0.0310867,-0.0139486,0,-0.00286767,0,0,0,0.0338352,-0.000877443,0.00988734,-1.82172,0.0142817,0.0307762,9.03143e-07,0.66,0.2,0
0.0323213,0.00577289,0.0282167,-0.00149806,0.0080156,-0.00117044,0,0,0.0359651,-0.0168222,0,-0.00531964,0,0,0,0.0282913,-0.00157263,0.0080156,-2.73222,0.0115781,0.0264093,6.49419e-07,0.68,0.2,0
0.0330976,0.00588967,0.0350265,-0.00132584,0.0101102,-0.00193234,0,0,0.045375,-0.0206057,0,-0.00786625,0,0,0,0.035141,-0.00144037,0.0101102,-3.25108,0.0146036,0.0323901,1.14185e-06,0.7,0.2,0
0.0342675,0.00619233,0.0306174,-0.00119138,0.0088278,-0.00188121,0,0,0.0566529,-0.0260499,0,-0.00978231,0,0,0,0.0307283,-0.00130225,0.0088278,-3.37288,0.0127513,0.0283567,6.87276e-07,0.72,0.2,0
0.0353637,0.00652014,0.0298603,-0.000836632,0.0087071,-0.00104023,0,0,0.0549983,-0.0248137,0,-0.00540922,0,0,0,0.0298955,-0.000871842,0.0087071,-1.93863,0.0125769,0.0272703,6.24949e-07,0.74,0.2,0
0.0364674,0.00682616,0.030238,0.000215864,0.00913616,-0.00081918,0,0,0.0548648,-0.0231928,0,-0.00425973,0,0,0,0.0302604,0.000193529,0.00913616,-1.56181,0.0131967,0.0267415,6.24686e-07,0.76,0.2,0
0.0375583,0.00710995,0.0302934,0.000712173,0.00930167,-0.000733428,0,0,0.0545785,-0.0223327,0,-0.00381383,0,0,0,0.0303116,0.000694,0.00930167,-1.41941,0.0134357,0.0263885,6.16355e-07,0.78,0.2,0
0.0386505,0.00735002,0.0304922,0.000930754,0.00942687,-0.000813256,0,0,0.0547697,-0.0220899,0,-0.00422893,0,0,0,0.0305145,0.000908398,0.00942687,-1.57466,0.0136166,0.0263986,6.23824e-07,0.8,0.2,0
0.039749,0.00754723,0.0306825,0.000834693,0.00945515,-0.000870253,0,0,0.055191,-0.0224132,0,-0.00452531,0,0,0,0.0307078,0.000809341,0.00945515,-1.66865,0.0136574,0.0266491,6.3829e-07,0.82,0.2,0
0.0408582,0.00770615,0.0308922,0.000638565,0.00945924,-0.00087185,0,0,0.0557258,-0.0229337,0,-0.00453362,0,0,0,0.0309173,0.00061346,0.00945924,-1.64933,0.0136633,0.0269909,6.5634e-07,0.84,0.2,0
0.0419781,0.00783404,0.0310736,0.000412773,0.0094459,-0.000823988,0,0,0.0562319,-0.0234861,0,-0.00428474,0,0,0,0.0310957,0.000390645,0.0094459,-1.53831,0.0136441,0.0273268,6.73262e-07,0.86,0.2,0
0.0431075,0.00793646,0.0312164,0.000187735,0.00942125,-0.00074395,0,0,0.0566675,-0.0240071,0,-0.00386854,0,0,0,0.0312343,0.000169908,0.00942125,-1.37268,0.0136085,0.027626,6.87681e-07,0.88,0.2,0
0.0442448,0.00801755,0.0313257,-1.78261e-05,0.00939236,-0.000642579,0,0,0.0570267,-0.0244665,0,-0.00334141,0,0,0,0.0313389,-3.09942e-05,0.00939236,-1.17397,0.0135667,0.0278793,6.99451e-07,0.9,0.2,0
0.0453885,0.00808037,0.0314069,-0.000193168,0.00936413,-0.000526856,0,0,0.0573113,-0.024849,0,-0.00273965,0,0,0,0.0314157,-0.000201949,0.00936413,-0.954916,0.013526,0.0280843,7.08685e-07,0.92,0.2,0
0.0465372,0.00812718,0.031465,-0.000332445,0.00933976,-0.000401683,0,0,0.0575255,-0.0251477,0,-0.00208875,0,0,0,0.03147,-0.000337519,0.00933976,-0.723639,0.0134908,0.0282411,7.15572e-07,0.94,0.2,0
0.0476895,0.00815957,0.0315036,-0.000432893,0.0093212,-0.000270576,0,0,0.0576742,-0.0253607,0,-0.00140699,0,0,0,0.0315059,-0.000435185,0.0093212,-0.485382,0.013464,0.0283512,7.2031e-07,0.96,0.2,0
0.0488442,0.00817861,0.0315256,-0.00049339,0.00930965,-0.000136059,0,0,0.0577614,-0.0254879,0,-0.000707506,0,0,0,0.0315261,-0.000493968,0.00930965,-0.243462,0.0134473,0.0284163,7.23075e-07,0.98,0.2,0
0.05,0.00818489,0.0315327,-0.000513579,0.00930574,6.03778e-05,0,0,0.0577901,-0.0255302,0,0.000313964,0,0,0,0.0315328,-0.000513693,0.00930574,0.107949,0.0134416,0.028438,7.23993e-07,1,0.2,0
0,0,0.0296825,0.0127211,0.0127211,0.00496312,0,0,0.0440997,-6.50521e-19,0,0.0258082,0,0,0,0.031028,0.0113755,0.0127211,15.1686,0.0183749,0.0190154,3.47181e-07,0,0.22,0
0.000881994,0.000516164,0.0295697,0.011386,0.0122867,0.00494662,0,0,0.0449358,-0.00234187,0,0.0257224,0,0,0,0.0308283,0.0101275,0.0122867,14.2747,0.0177475,0.0197101,3.77402e-07,0.02,0.22,0
0.00179743,0.00102695,0.0300075,0.0102688,0.0120829,0.00488032,0,0,0.0466039,-0.00471655,0,0.0253777,0,0,0,0.0311482,0.00912812,0.0120829,13.1561,0.0174531,0.0207015,4.24518e-07,0.04,0.22,0
0.00274615,0.00152903,0.0304305,0.00915565,0.0118759,0.00476758,0,0,0.0482422,-0.00707253,0,0.0247914,0,0,0,0.0314501,0.00813612,0.0118759,12.0707,0.017154,0.0216873,4.71806e-07,0.06,0.22,0
0.00372712,0.00201813,0.030827,0.00807433,0.0116704,0.00460349,0,0,0.0498071,-0.00934976,0,0.0239381,0,0,0,0.0317231,0.00717821,0.0116704,11.0155,0.0168572,0.0226356,5.17469e-07,0.08,0.22,0
0.00473844,0.00248959,0.0311861,0.00705155,0.0114713,0.00439169,0,0,0.0512584,-0.0114913,0,0.0228368,0,0,0,0.0319604,0.00627725,0.0114713,9.9991,0.0165696,0.0235202,5.59969e-07,0.1,0.22,0
0.00577746,0.00293902,0.0315,0.00610889,0.0112827,0.00414218,0,0,0.0525651,-0.0134518,0,0.0215393,0,0,0,0.0321586,0.00545024,0.0112827,9.03498,0.0162972,0.0243224,5.9819e-07,0.12,0.22,0
0.00684104,0.00336261,0.0317649,0.00526108,0.0111078,0.00386837,0,0,0.0537086,-0.0152015,0,0.0201155,0,0,0,0.032318,0.00470801,0.0111078,8.13653,0.0160446,0.0250314,6.3149e-07,0.14,0.22,0
0.0079258,0.00375735,0.0319807,0.0045161,0.010949,0.00358441,0,0,0.0546823,-0.0167256,0,0.0186389,0,0,0,0.0324408,0.00405601,0.010949,7.31448,0.0158153,0.0256428,6.59642e-07,0.16,0.22,0
0.00902833,0.00412106,0.0321498,0.00387653,0.0108079,0.00330315,0,0,0.055489,-0.0180216,0,0.0171764,0,0,0,0.0325306,0.00349576,0.0108079,6.57584,0.0156114,0.0261569,6.82726e-07,0.18,0.22,0
0.0101454,0.00445228,0.0322766,0.00334116,0.0106853,0.00303508,0,0,0.0561374,-0.0190949,0,0.0157824,0,0,0,0.0325916,0.00302623,0.0106853,5.92393,0.0154344,0.0265768,7.01e-07,0.2,0.22,0
0.0112738,0.00475013,0.0323657,0.00290652,0.0105817,0.00278788,0,0,0.0566386,-0.0199554,0,0.014497,0,0,0,0.0326273,0.00264501,0.0105817,5.35881,0.0152847,0.0269066,7.14794e-07,0.22,0.22,0
0.0124109,0.00501404,0.0324214,0.00256801,0.0104968,0.00256644,0,0,0.057004,-0.0206149,0,0.0133455,0,0,0,0.0326405,0.00234899,0.0104968,4.87791,0.0151621,0.0271505,7.24421e-07,0.24,0.22,0
0.013554,0.0052436,0.0324468,0.00232043,0.0104302,0.00237304,0,0,0.0572433,-0.0210854,0,0.0123398,0,0,0,0.0326326,0.00213465,0.0104302,4.47637,0.0150658,0.027312,7.30129e-07,0.26,0.22,0
0.0147006,0.00543825,0.0324434,0.002158,0.0103804,0.0022075,0,0,0.0573638,-0.0213783,0,0.011479,0,0,0,0.0326035,0.00199795,0.0103804,4.14707,0.014994,0.0273937,7.32067e-07,0.28,0.22,0
0.0158485,0.00559702,0.0324104,0.00207387,0.0103453,0.00206702,0,0,0.0573693,-0.0215057,0,0.0107485,0,0,0,0.0325506,0.00193368,0.0103453,3.88002,0.0149432,0.0273973,7.30258e-07,0.3,0.22,0
0.0169954,0.00571817,0.0323433,0.00205857,0.0103205,0.00194528,0,0,0.0572591,-0.0214812,0,0.0101155,0,0,0,0.0324677,0.00193413,0.0103205,3.66024,0.0149075,0.0273233,7.24539e-07,0.32,0.22,0
0.0181389,0.00579863,0.0322321,0.00209735,0.0102988,0.00182971,0,0,0.0570266,-0.0213239,0,0.00951448,0,0,0,0.0323428,0.00198666,0.0102988,3.4619,0.0148761,0.027171,7.14515e-07,0.34,0.22,0
0.0192765,0.00583307,0.0320594,0.00216176,0.0102664,0.00169353,0,0,0.056662,-0.021072,0,0.00880636,0,0,0,0.0321551,0.00206614,0.0102664,3.2317,0.0148292,0.0269416,6.9959e-07,0.36,0.22,0
0.0204054,0.00581208,0.0318618,0.00221419,0.0102228,0.0014776,0,0,0.0562615,-0.0208224,0,0.00768352,0,0,0,0.0319353,0.00214073,0.0102228,2.84615,0.0147663,0.0266877,6.82878e-07,0.38,0.22,0
0.0215269,0.00571927,0.0318412,0.0020808,0.0101766,0.00119292,0,0,0.0563279,-0.0210491,0,0.00620318,0,0,0,0.0318889,0.00203306,0.0101766,2.29175,0.0146995,0.0267312,6.82804e-07,0.4,0.22,0
0.0226585,0.00555737,0.031478,0.000874144,0.00970564,0.000925489,0,0,0.0566081,-0.0229619,0,0.00481254,0,0,0,0.031506,0.000846182,0.00970564,1.73057,0.0140193,0.0273292,6.88963e-07,0.42,0.22,0
0.0237913,0.00532701,0.0322593,-6.68626e-05,0.00965773,0.00138115,0,0,0.0587641,-0.0252839,0,0.00718198,0,0,0,0.0323182,-0.000125766,0.00965773,2.44206,0.0139501,0.0288256,7.6947e-07,0.44,0.22,0
0.0250091,0.00509758,0.0368814,-0.000334322,0.0109641,0.00095601,0,0,0.0472043,-0.0204492,0,0.00437787,0,0,0,0.0369194,-0.00037229,0.0109641,1.69381,0.0158371,0.0331126,1.28714e-06,0.46,0.22,0
0.0258163,0.00506162,0.0294717,-0.000569788,0.00867058,-4.30914e-05,0,0,0.0371318,-0.0164061,0,0.000551852,0,0,0,0.0294823,-0.000580348,0.00867058,0.203893,0.0125242,0.0266691,7.07576e-07,0.48,0.22,0
0.0264297,0.00510252,0.0343351,-0.000955085,0.010014,-0.000670141,0,0,0.0316174,-0.0142598,0,-0.00174237,0,0,0,0.0343478,-0.000967806,0.010014,-1.08749,0.0144647,0.0313044,9.46903e-07,0.5,0.22,0
0.027081,0.00512292,0.0356269,-4.96004e-06,0.0106866,-0.000551687,0,0,0.0324224,-0.013899,0,-0.00143439,0,0,0,0.0356354,-1.34997e-05,0.0106866,-0.886825,0.0154362,0.0316843,1.02771e-06,0.52,0.22,0
0.0277266,0.00512409,0.0357602,0.000497405,0.0108773,-0.000471375,0,0,0.0323478,-0.0134938,0,-0.00122557,0,0,0,0.0357665,0.000491105,0.0108773,-0.765719,0.0157116,0.0313982,1.02316e-06,0.54,0.22,0
0.0283749,0.00513613,0.0360335,0.000666173,0.0110099,-0.000336041,0,0,0.0325306,-0.0134468,0,-0.000873705,0,0,0,0.0360366,0.00066298,0.0110099,-0.544328,0.0159032,0.0315015,1.04104e-06,0.56,0.22,0
0.0290279,0.0051621,0.0362381,0.000736738,0.0110925,-0.000280819,0,0,0.0326894,-0.0134624,0,-0.00073013,0,0,0,0.0362403,0.000734516,0.0110925,-0.453177,0.0160224,0.0316257,1.05655e-06,0.58,0.22,0
0.0296825,0.00520199,0.0362143,0.000690339,0.0110714,-0.000251058,0,0,0.0326858,-0.0134954,0,-0.00065275,0,0,0,0.0362161,0.000688564,0.0110714,-0.404898,0.015992,0.0316407,1.05594e-06,0.6,0.22,0
0.0303353,0.00525631,0.0359591,0.00052377,0.0109449,-0.000180921,0,0,0.0325185,-0.0135474,0,-0.000470395,0,0,0,0.03596,0.000522846,0.0109449,-0.292524,0.0158092,0.0315449,1.03892e-06,0.62,0.22,0
0.0309832,0.0053261,0.0356332,0.000250612,0.0107651,-1.45438e-05,0,0,0.0323285,-0.0136689,0,-3.78138e-05,0,0,0,0.0356332,0.000250606,0.0107651,-0.023551,0.0155496,0.0314714,1.0193e-06,0.64,0.22,0
0.0316284,0.00540936,0.0354525,-0.000386118,0.0105199,0.000110026,0,0,0.0324123,-0.0141778,0,0.000286068,0,0,0,0.0354528,-0.000386456,0.0105199,0.175898,0.0151954,0.0318202,1.02328e-06,0.66,0.22,0
0.0322797,0.00547627,0.0340941,-0.00154066,0.00976604,0.00026725,0,0,0.0316265,-0.0146987,0,0.00069485,0,0,0,0.0340961,-0.00154267,0.00976604,0.429669,0.0141065,0.0315433,9.41437e-07,0.68,0.22,0
0.0328935,0.00552455,0.0292707,-0.00117777,0.00842789,-0.00022779,0,0,0.0372152,-0.0170513,0,-0.00150443,0,0,0,0.0292824,-0.00118945,0.00842789,-0.704669,0.0121736,0.0269811,7.06354e-07,0.7,0.22,0
0.0337031,0.00565564,0.0366242,-0.0012493,0.0106125,-0.00112363,0,0,0.0473916,-0.0214568,0,-0.00492727,0,0,0,0.036669,-0.00129409,0.0106125,-1.90245,0.0153291,0.03363,1.29136e-06,0.72,0.22,0
0.0349274,0.00599766,0.0320702,-0.000975727,0.00932835,-0.00135141,0,0,0.0591289,-0.0267906,0,-0.00702732,0,0,0,0.0321254,-0.0010309,0.00932835,-2.3379,0.0134743,0.0293799,7.77695e-07,0.74,0.22,0
0.0360682,0.00635341,0.0312609,-0.000125979,0.00934048,-0.000757503,0,0,0.0569931,-0.0246128,0,-0.00393902,0,0,0,0.0312792,-0.00014425,0.00934048,-1.38173,0.0134918,0.0279168,6.98147e-07,0.76,0.22,0
0.0372072,0.00665561,0.0315731,0.000981151,0.00976629,-0.000870398,0,0,0.0566978,-0.0228414,0,-0.00452607,0,0,0,0.0315979,0.000956406,0.00976629,-1.62841,0.0141069,0.0273234,6.92249e-07,0.78,0.22,0
0.0383361,0.0069027,0.0315553,0.0010152,0.00977114,-0.00100553,0,0,0.0566388,-0.0227655,0,-0.00522873,0,0,0,0.0315884,0.000982126,0.00977114,-1.88373,0.0141139,0.0272945,6.90954e-07,0.8,0.22,0
0.0394727,0.00709191,0.0317183,0.000827138,0.00976363,-0.00106285,0,0,0.0570821,-0.0232349,0,-0.00552681,0,0,0,0.0317548,0.000790613,0.00976363,-1.96823,0.014103,0.0275945,7.07024e-07,0.82,0.22,0
0.0406194,0.00723972,0.0318729,0.000590763,0.0097391,-0.00102555,0,0,0.0575479,-0.0237857,0,-0.00533285,0,0,0,0.0319065,0.000557178,0.0097391,-1.87569,0.0140676,0.0279149,7.23323e-07,0.84,0.22,0
0.0417746,0.00735632,0.0319791,0.000333904,0.0096939,-0.000942875,0,0,0.0579415,-0.024336,0,-0.00490295,0,0,0,0.0320072,0.000305836,0.0096939,-1.70512,0.0140023,0.0282045,7.36672e-07,0.86,0.22,0
0.0429371,0.00744827,0.0320553,8.6334e-05,0.00964249,-0.000834704,0,0,0.0582733,-0.024846,0,-0.00434046,0,0,0,0.0320771,6.45548e-05,0.00964249,-1.49462,0.013928,0.0284592,7.47641e-07,0.88,0.22,0
0.0441056,0.0075202,0.0321107,-0.000134925,0.00959273,-0.000710035,0,0,0.0585467,-0.0252919,0,-0.00369218,0,0,0,0.0321263,-0.000150552,0.00959273,-1.26081,0.0138562,0.0286748,7.56481e-07,0.9,0.22,0
0.0452789,0.00757543,0.0321502,-0.000320203,0.009549,-0.00057507,0,0,0.0587631,-0.0256599,0,-0.00299036,0,0,0,0.0321604,-0.000330384,0.009549,-1.01432,0.013793,0.028849,7.63345e-07,0.92,0.22,0
0.0464561,0.00761633,0.032177,-0.000465366,0.00951348,-0.000434249,0,0,0.0589251,-0.025945,0,-0.0022581,0,0,0,0.0321827,-0.000471142,0.00951348,-0.76204,0.0137417,0.0289816,7.68392e-07,0.94,0.22,0
0.0476359,0.00764453,0.0321938,-0.000569045,0.00948742,-0.00029049,0,0,0.0590366,-0.0261468,0,-0.00151055,0,0,0,0.0321964,-0.000571621,0.00948742,-0.507957,0.0137041,0.0290742,7.71815e-07,0.96,0.22,0
0.0488175,0.00766106,0.0322029,-0.000631104,0.00947154,-0.000145461,0,0,0.0591016,-0.0262669,0,-0.000756395,0,0,0,0.0322036,-0.000631748,0.00947154,-0.253824,0.0136811,0.0291288,7.73789e-07,0.98,0.22,0
0.05,0.00766651,0.0322058,-0.000651752,0.00946621,5.23888e-05,0,0,0.0591229,-0.0263067,0,0.000272422,0,0,0,0.0322059,-0.000651835,0.00946621,0.0913534,0.0136734,0.029147,7.74441e-07,1,0.22,0
0,0,0.0297261,0.0127398,0.0127398,0.00451749,0,0,0.0441645,-1.0842e-19,0,0.0234909,0,0,0,0.0308528,0.0116131,0.0127398,14.0042,0.0184019,0.0187019,3.31844e-07,0,0.24,0
0.000883291,0.000469819,0.029614,0.0114282,0.0123127,0.00450378,0,0,0.0449834,-0.00229952,0,0.0234197,0,0,0,0.0306682,0.010374,0.0123127,13.1748,0.0177849,0.0193977,3.62269e-07,0.02,0.24,0
0.00179934,0.00093396,0.0300468,0.0103498,0.012119,0.00444492,0,0,0.0466124,-0.00459996,0,0.0231136,0,0,0,0.0310034,0.00939316,0.012119,12.1455,0.0175052,0.0203845,4.0893e-07,0.04,0.24,0
0.00274779,0.00138992,0.0304677,0.00928419,0.0119256,0.0043507,0,0,0.0482095,-0.00686757,0,0.0226237,0,0,0,0.0313264,0.00842544,0.0119256,11.1655,0.0172258,0.021367,4.56032e-07,0.06,0.24,0
0.00372772,0.00183441,0.0308683,0.00825084,0.0117357,0.00421626,0,0,0.0497447,-0.00906076,0,0.0219246,0,0,0,0.0316287,0.00749042,0.0117357,10.2235,0.0169516,0.0223205,5.02198e-07,0.08,0.24,0
0.00473757,0.00226374,0.0312408,0.00726928,0.011553,0.00404305,0,0,0.0511882,-0.0111377,0,0.0210239,0,0,0,0.0319043,0.00660574,0.011553,9.32016,0.0166877,0.0232236,5.46181e-07,0.1,0.24,0
0.00577525,0.00267432,0.031579,0.00635654,0.0113807,0.00383755,0,0,0.0525157,-0.0130627,0,0.0199552,0,0,0,0.03215,0.00578559,0.0113807,8.46239,0.0164387,0.0240598,5.86993e-07,0.12,0.24,0
0.0068382,0.00306291,0.0318793,0.00552548,0.0112214,0.00360944,0,0,0.0537105,-0.0148095,0,0.0187691,0,0,0,0.0323648,0.00504007,0.0112214,7.65938,0.0162088,0.0248182,6.23968e-07,0.14,0.24,0
0.00792367,0.00342681,0.0321409,0.00478442,0.0110776,0.00336973,0,0,0.0547646,-0.0163622,0,0.0175226,0,0,0,0.0325499,0.00437546,0.0110776,6.91982,0.016001,0.0254929,6.56755e-07,0.16,0.24,0
0.00902879,0.00376397,0.0323651,0.00413767,0.0109508,0.00312918,0,0,0.0556771,-0.0177142,0,0.0162717,0,0,0,0.0327078,0.00379495,0.0109508,6.25047,0.0158179,0.0260819,6.8527e-07,0.18,0.24,0
0.0101507,0.00407287,0.0325549,0.00358643,0.0108424,0.00289722,0,0,0.0564526,-0.0188655,0,0.0150656,0,0,0,0.0328419,0.00329951,0.0108424,5.65568,0.0156613,0.0265859,7.09612e-07,0.2,0.24,0
0.0112869,0.00435249,0.0327144,0.00312984,0.0107533,0.00268142,0,0,0.057099,-0.019821,0,0.0139434,0,0,0,0.0329555,0.00288877,0.0107533,5.13726,0.0155325,0.0270074,7.2999e-07,0.22,0.24,0
0.0124347,0.00460209,0.0328479,0.00276584,0.0106841,0.00248715,0,0,0.0576258,-0.0205875,0,0.0129332,0,0,0,0.0330521,0.0025616,0.0106841,4.69466,0.0154326,0.0273494,7.4666e-07,0.24,0.24,0
0.0135919,0.00482105,0.0329596,0.00249173,0.0106354,0.00231751,0,0,0.0580429,-0.0211735,0,0.012051,0,0,0,0.0331349,0.00231646,0.0106354,4.32498,0.0153622,0.0276153,7.59894e-07,0.26,0.24,0
0.0147564,0.00500861,0.0330537,0.0023043,0.0106074,0.00217331,0,0,0.0583604,-0.0215881,0,0.0113012,0,0,0,0.0332066,0.00215145,0.0106074,4.02291,0.0153218,0.0278087,7.69957e-07,0.28,0.24,0
0.0159263,0.00516359,0.0331342,0.00219955,0.0106001,0.00205296,0,0,0.0585886,-0.0218415,0,0.0106754,0,0,0,0.0332698,0.0020639,0.0106001,3.78031,0.0153113,0.0279338,7.77122e-07,0.3,0.24,0
0.0171,0.00528401,0.0332043,0.0021719,0.0106129,0.0019521,0,0,0.0587377,-0.0219465,0,0.0101509,0,0,0,0.0333266,0.00204958,0.0106129,3.58537,0.0153297,0.0279955,7.81644e-07,0.32,0.24,0
0.0182758,0.00536651,0.0332635,0.00221189,0.0106426,0.00186216,0,0,0.0588143,-0.0219199,0,0.00968324,0,0,0,0.0333748,0.00210061,0.0106426,3.41968,0.0153727,0.0279981,7.83588e-07,0.34,0.24,0
0.0194525,0.00540533,0.0332984,0.00230187,0.0106801,0.00176627,0,0,0.0588076,-0.0217833,0,0.00918459,0,0,0,0.0333987,0.00220154,0.0106801,3.25085,0.0154268,0.02794,7.82256e-07,0.36,0.24,0
0.0206282,0.00539026,0.0332176,0.00237759,0.0106786,0.00160916,0,0,0.0586015,-0.0215825,0,0.00836764,0,0,0,0.0333013,0.00229386,0.0106786,2.97878,0.0154246,0.0277809,7.72443e-07,0.38,0.24,0
0.0217966,0.00529845,0.0331132,0.00242485,0.0106614,0.00123555,0,0,0.0583746,-0.021415,0,0.00642485,0,0,0,0.0331628,0.00237518,0.0106614,2.30183,0.0153998,0.027594,7.60105e-07,0.4,0.24,0
0.0229631,0.00508093,0.0339371,0.00143296,0.010611,0.00109935,0,0,0.0606478,-0.0238629,0,0.00571663,0,0,0,0.0339742,0.00139582,0.010611,1.93491,0.015327,0.029087,8.49447e-07,0.42,0.24,0
0.0242225,0.00481091,0.0386518,-9.61391e-06,0.0115927,0.000473744,0,0,0.0491978,-0.0209241,0,0.00255943,0,0,0,0.0386689,-2.67207e-05,0.0115927,0.910861,0.016745,0.0343915,1.47297e-06,0.44,0.24,0
0.0250688,0.00474051,0.0309246,-0.000121452,0.00924095,-0.000571171,0,0,0.0387668,-0.0166345,0,-0.00161894,0,0,0,0.0309387,-0.000135538,0.00924095,-0.891196,0.013348,0.0276075,8.01225e-07,0.46,0.24,0
0.0257023,0.00478023,0.035616,-0.000258967,0.0106071,-0.000959351,0,0,0.0325116,-0.0141259,0,-0.00249431,0,0,0,0.0356417,-0.000284603,0.0106071,-1.53072,0.0153214,0.0319065,1.03656e-06,0.48,0.24,0
0.0263692,0.0048201,0.0362648,-0.000245868,0.0108057,-0.000637273,0,0,0.0330969,-0.014367,0,-0.00165691,0,0,0,0.0362759,-0.000256988,0.0108057,-0.999659,0.0156082,0.0324482,1.09186e-06,0.5,0.24,0
0.0270262,0.00483865,0.0359348,-0.000213537,0.0107164,-0.000759533,0,0,0.032784,-0.0142089,0,-0.00197479,0,0,0,0.0359508,-0.000229489,0.0107164,-1.20317,0.0154792,0.0321372,1.06198e-06,0.52,0.24,0
0.0276806,0.00485239,0.0359754,0.000349487,0.0108975,-0.00067044,0,0,0.0326013,-0.0137124,0,-0.00174314,0,0,0,0.035988,0.000336874,0.0108975,-1.07773,0.0157408,0.031718,1.04737e-06,0.54,0.24,0
0.0283302,0.00486859,0.0359156,0.000617072,0.0109598,-0.000508704,0,0,0.0324425,-0.0134455,0,-0.00132263,0,0,0,0.0359229,0.000609743,0.0109598,-0.825488,0.0158308,0.0314428,1.03288e-06,0.56,0.24,0
0.0289783,0.00489532,0.0359014,0.000696628,0.0109794,-0.000329221,0,0,0.0323986,-0.0133676,0,-0.000855974,0,0,0,0.0359045,0.000693549,0.0109794,-0.535744,0.0158592,0.0313598,1.02856e-06,0.58,0.24,0
0.0296262,0.00493453,0.0358722,0.000642234,0.0109543,-0.000152582,0,0,0.0323932,-0.0134057,0,-0.000396714,0,0,0,0.0358729,0.000641573,0.0109543,-0.248144,0.0158229,0.031373,1.02751e-06,0.6,0.24,0
0.030274,0.00498668,0.0358276,0.000451439,0.0108837,4.54839e-05,0,0,0.032427,-0.0135619,0,0.000118258,0,0,0,0.0358276,0.00045138,0.0108837,0.0736663,0.0157209,0.0314842,1.02972e-06,0.62,0.24,0
0.0309232,0.00505069,0.0358288,6.20826e-05,0.0107673,0.000242368,0,0,0.03258,-0.0139167,0,0.000630156,0,0,0,0.0358304,6.04403e-05,0.0107673,0.388233,0.0155527,0.0317985,1.04236e-06,0.64,0.24,0
0.0315772,0.00511916,0.0357283,-0.000648515,0.0105239,0.000374988,0,0,0.0327656,-0.0145242,0,0.00097497,0,0,0,0.0357321,-0.00065238,0.0105239,0.590548,0.0152012,0.0322815,1.05558e-06,0.66,0.24,0
0.0322339,0.00518494,0.0359973,-0.000858157,0.0105417,0.00029427,0,0,0.0330922,-0.0148199,0,0.000765101,0,0,0,0.0359996,-0.000860506,0.0105417,0.457435,0.015227,0.0326863,1.0856e-06,0.68,0.24,0
0.0329009,0.00523171,0.0353045,-0.00105183,0.0102758,0.000650693,0,0,0.0325373,-0.0147259,0,0.0016918,0,0,0,0.0353161,-0.00106348,0.0102758,1.02502,0.0148428,0.0322419,1.03122e-06,0.7,0.24,0
0.0335353,0.00528028,0.0306674,-0.000932679,0.00892041,0.000408888,0,0,0.0388892,-0.0175009,0,0.00106969,0,0,0,0.0306757,-0.000941006,0.00892041,0.593085,0.012885,0.0280196,8.00872e-07,0.72,0.24,0
0.0343848,0.00544851,0.0382793,-0.00128336,0.0110988,-0.000474643,0,0,0.0494332,-0.0223188,0,-0.00247824,0,0,0,0.038294,-0.001298,0.0110988,-0.871273,0.0160316,0.0350775,1.4774e-06,0.74,0.24,0
0.0356519,0.00584164,0.0336569,0.000227262,0.0101653,-0.000880404,0,0,0.0610783,-0.0258388,0,-0.0045781,0,0,0,0.0336801,0.000204092,0.0101653,-1.50755,0.0146831,0.0297726,8.61627e-07,0.76,0.24,0
0.0368279,0.0061963,0.0328396,0.00120286,0.0102127,-0.000874992,0,0,0.0588298,-0.0234257,0,-0.00454996,0,0,0,0.0328638,0.00117868,0.0102127,-1.58304,0.0147517,0.0282722,7.73686e-07,0.78,0.24,0
0.0380051,0.0064394,0.0329004,0.00102939,0.0101789,-0.00110587,0,0,0.0590758,-0.0237888,0,-0.00575053,0,0,0,0.0329387,0.000991061,0.0101789,-1.98489,0.0147029,0.0284875,7.84334e-07,0.8,0.24,0
0.039191,0.00661783,0.0329795,0.000818639,0.0101395,-0.00112301,0,0,0.0593842,-0.0242341,0,-0.00583963,0,0,0,0.0330187,0.000779473,0.0101395,-1.99743,0.0146459,0.0287266,7.96033e-07,0.82,0.24,0
0.0403805,0.00675472,0.0329554,0.000535478,0.0100473,-0.00106451,0,0,0.0595611,-0.0247306,0,-0.00553545,0,0,0,0.0329903,0.000500562,0.0100473,-1.87861,0.0145127,0.0289232,8.01631e-07,0.84,0.24,0
0.0415734,0.0068606,0.0329272,0.000243601,0.00995125,-0.000973912,0,0,0.0597376,-0.0252399,0,-0.00506434,0,0,0,0.0329562,0.000214606,0.00995125,-1.70529,0.014374,0.0291208,8.06859e-07,0.86,0.24,0
0.04277,0.00694262,0.0329067,-2.94257e-05,0.00986318,-0.000858076,0,0,0.0599131,-0.0257208,0,-0.004462,0,0,0,0.032929,-5.17657e-05,0.00986318,-1.49136,0.0142468,0.0293093,8.11924e-07,0.88,0.24,0
0.0439699,0.00700588,0.032892,-0.000265254,0.00978802,-0.000725402,0,0,0.0600703,-0.0261385,0,-0.00377209,0,0,0,0.0329078,-0.000281117,0.00978802,-1.2527,0.0141382,0.0294739,8.16343e-07,0.9,0.24,0
0.0451728,0.00705398,0.0328789,-0.000457929,0.0097263,-0.000583516,0,0,0.0601968,-0.026479,0,-0.00303428,0,0,0,0.0328891,-0.000468139,0.0097263,-1.00247,0.0140491,0.029607,8.19767e-07,0.92,0.24,0
0.0463778,0.00708938,0.0328669,-0.000606233,0.00967819,-0.000437889,0,0,0.0602906,-0.0267395,0,-0.00227702,0,0,0,0.0328726,-0.000611961,0.00967819,-0.749361,0.0139796,0.0297076,8.22193e-07,0.94,0.24,0
0.0475844,0.0071137,0.0328568,-0.000710882,0.00964378,-0.0002915,0,0,0.0603539,-0.0269221,0,-0.0015158,0,0,0,0.0328593,-0.000713413,0.00964378,-0.497504,0.0139299,0.0297772,8.23761e-07,0.96,0.24,0
0.048792,0.00712793,0.0328501,-0.000773051,0.00962311,-0.000145519,0,0,0.0603901,-0.02703,0,-0.000756699,0,0,0,0.0328507,-0.000773681,0.00962311,-0.247967,0.0139,0.0298179,8.24627e-07,0.98,0.24,0
0.05,0.00713262,0.0328477,-0.000793661,0.00961622,4.50629e-05,0,0,0.0604019,-0.0270657,0,0.000234327,0,0,0,0.0328478,-0.000793721,0.00961622,0.076748,0.0138901,0.0298314,8.24908e-07,1,0.24,0
0,0,0.0297776,0.0127618,0.0127618,0.00407868,0,0,0.044241,-1.0842e-19,0,0.0212092,0,0,0,0.0307048,0.0118347,0.0127618,12.8065,0.0184338,0.018424,3.18459e-07,0,0.26,0
0.000884821,0.000424183,0.0296658,0.0114679,0.0123401,0.00406695,0,0,0.0450468,-0.00226772,0,0.0211481,0,0,0,0.0305333,0.0106004,0.0123401,12.0416,0.0178246,0.0191225,3.49133e-07,0.02,0.26,0
0.00180187,0.000842951,0.0300949,0.010419,0.0121542,0.00401507,0,0,0.0466458,-0.00451132,0,0.0208784,0,0,0,0.0308826,0.00963127,0.0121542,11.1007,0.017556,0.020109,3.95556e-07,0.04,0.26,0
0.00275065,0.00125433,0.0305138,0.00939063,0.0119713,0.00393511,0,0,0.0482104,-0.00670982,0,0.0204626,0,0,0,0.0312231,0.00868136,0.0119713,10.2174,0.0172919,0.0210901,4.42525e-07,0.06,0.26,0
0.00373029,0.0016557,0.0309173,0.00839585,0.0117939,0.00382272,0,0,0.0497206,-0.00883501,0,0.0198782,0,0,0,0.0315484,0.00776468,0.0117939,9.37552,0.0170357,0.022047,4.89003e-07,0.08,0.26,0
0.00473948,0.00204408,0.0312997,0.00744889,0.0116246,0.00367826,0,0,0.0511553,-0.0108568,0,0.0191269,0,0,0,0.031854,0.00689452,0.0116246,8.57091,0.016791,0.0229628,5.34008e-07,0.1,0.26,0
0.0057765,0.00241651,0.0316565,0.00656293,0.0114658,0.00350603,0,0,0.0524958,-0.0127476,0,0.0182313,0,0,0,0.0321372,0.00608228,0.0114658,7.80614,0.0165618,0.0238238,5.76716e-07,0.12,0.26,0
0.00683931,0.00277023,0.0319849,0.00574874,0.0113201,0.00331311,0,0,0.0537286,-0.0144855,0,0.0172282,0,0,0,0.0323969,0.00533683,0.0113201,7.08712,0.0163513,0.0246198,6.16518e-07,0.14,0.26,0
0.00792564,0.00310286,0.032284,0.00501422,0.0111895,0.00310807,0,0,0.0548459,-0.0160557,0,0.016162,0,0,0,0.0326338,0.00466446,0.0111895,6.42057,0.0161626,0.0253448,6.5304e-07,0.16,0.26,0
0.00903314,0.00341249,0.0325548,0.00436439,0.0110758,0.00289975,0,0,0.0558455,-0.0174496,0,0.0150787,0,0,0,0.03285,0.0040692,0.0110758,5.81253,0.0159983,0.0259956,6.86123e-07,0.18,0.26,0
0.0101595,0.00369766,0.0327997,0.00380198,0.0109805,0.00269635,0,0,0.05673,-0.0186642,0,0.014021,0,0,0,0.0330483,0.0035534,0.0109805,5.26746,0.0158607,0.0265716,7.15779e-07,0.2,0.26,0
0.0113023,0.00395729,0.0330225,0.00332811,0.0109052,0.00250473,0,0,0.0575051,-0.0197004,0,0.0130246,0,0,0,0.0332323,0.00311832,0.0109052,4.78782,0.0157519,0.0270739,7.42145e-07,0.22,0.26,0
0.0124597,0.00419054,0.0332277,0.00294294,0.0108512,0.00232996,0,0,0.058179,-0.0205615,0,0.0121158,0,0,0,0.0334059,0.00276473,0.0108512,4.37375,0.015674,0.0275045,7.65442e-07,0.24,0.26,0
0.0136295,0.00439666,0.0334208,0.00264621,0.0108201,0.00217492,0,0,0.0587618,-0.0212521,0,0.0113096,0,0,0,0.0335738,0.00249326,0.0108201,4.02259,0.015629,0.0278663,7.85962e-07,0.26,0.26,0
0.0148101,0.00457473,0.0336086,0.00243761,0.0108139,0.00203983,0,0,0.0592663,-0.0217783,0,0.0106071,0,0,0,0.0337415,0.00230469,0.0108139,3.72825,0.01562,0.0281634,8.04088e-07,0.28,0.26,0
0.0160002,0.00472336,0.0338005,0.00231682,0.0108352,0.00192174,0,0,0.0597098,-0.0221478,0,0.00999304,0,0,0,0.0339174,0.00219995,0.0108352,3.48007,0.0156508,0.028402,8.2039e-07,0.3,0.26,0
0.0171985,0.00484031,0.0340111,0.00228354,0.0108884,0.00181359,0,0,0.060119,-0.0223726,0,0.00943067,0,0,0,0.0341144,0.00218021,0.0108884,3.26095,0.0157277,0.0285926,8.35803e-07,0.32,0.26,0
0.0184049,0.00492184,0.0342654,0.00233824,0.0109811,0.00170302,0,0,0.0605393,-0.0224714,0,0.00885571,0,0,0,0.034356,0.00224765,0.0109811,3.04469,0.0158616,0.0287542,8.52016e-07,0.34,0.26,0
0.0196201,0.00496174,0.0346097,0.00248546,0.0111286,0.00156631,0,0,0.0610511,-0.0224721,0,0.00814481,0,0,0,0.0346859,0.00240927,0.0111286,2.78481,0.0160746,0.0289202,8.72194e-07,0.36,0.26,0
0.020847,0.00494878,0.0351534,0.00275664,0.011373,0.00136023,0,0,0.061829,-0.0224026,0,0.00707319,0,0,0,0.0352104,0.00269963,0.011373,2.40003,0.0164277,0.0291582,9.03691e-07,0.38,0.26,0
0.0220933,0.00486266,0.0361112,0.0032419,0.0118059,0.000716238,0,0,0.0631936,-0.0222665,0,0.00372444,0,0,0,0.0361268,0.0032263,0.0118059,1.24771,0.017053,0.0295597,9.59471e-07,0.4,0.26,0
0.0233747,0.00460285,0.0416551,0.00143094,0.0129258,0.000943531,0,0,0.0518367,-0.0204929,0,0.00388762,0,0,0,0.041681,0.00140503,0.0129258,1.47592,0.0186706,0.0359297,1.81772e-06,0.42,0.26,0
0.0242891,0.00444124,0.0333259,0.000529098,0.0101565,-0.00101584,0,0,0.0415499,-0.0171365,0,-0.00382924,0,0,0,0.033358,0.000496946,0.0101565,-1.84048,0.0146705,0.0292532,9.72216e-07,0.44,0.26,0
0.0249533,0.00445658,0.0371744,0.000340108,0.0112544,-0.000925051,0,0,0.0336961,-0.0141885,0,-0.00240513,0,0,0,0.0371976,0.000316891,0.0112544,-1.43771,0.0162563,0.0328091,1.15764e-06,0.46,0.26,0
0.0256369,0.00449658,0.0371807,0.000105953,0.011186,-0.000423132,0,0,0.0337931,-0.0144041,0,-0.00110014,0,0,0,0.0371855,0.000101125,0.011186,-0.653799,0.0161576,0.0329705,1.16385e-06,0.48,0.26,0
0.026305,0.00452783,0.0364776,-0.000319894,0.0108473,-0.000540038,0,0,0.0333194,-0.0145174,0,-0.0014041,0,0,0,0.0364855,-0.000327818,0.0108473,-0.840629,0.0156683,0.0326912,1.11311e-06,0.5,0.26,0
0.0269697,0.00455457,0.036283,-7.85553e-05,0.0108613,-0.000586875,0,0,0.0330481,-0.0142218,0,-0.00152587,0,0,0,0.0362924,-8.8025e-05,0.0108613,-0.924432,0.0156886,0.0323278,1.08798e-06,0.52,0.26,0
0.027627,0.00457559,0.0360587,0.000203859,0.0108788,-0.000594286,0,0,0.0327339,-0.0138774,0,-0.00154514,0,0,0,0.0360685,0.000194011,0.0108788,-0.949318,0.0157138,0.0319035,1.05903e-06,0.54,0.26,0
0.0282791,0.00459831,0.0359317,0.000461201,0.0109179,-0.000483061,0,0,0.032518,-0.0135937,0,-0.00125596,0,0,0,0.0359383,0.000454624,0.0109179,-0.780099,0.0157703,0.03158,1.03923e-06,0.56,0.26,0
0.0289277,0.00462739,0.0358457,0.000551072,0.010919,-0.000311705,0,0,0.0324047,-0.0134783,0,-0.000810433,0,0,0,0.0358484,0.00054832,0.010919,-0.505956,0.0157719,0.0314255,1.02841e-06,0.58,0.26,0
0.0295752,0.00466576,0.0358179,0.000486786,0.0108914,-0.000115201,0,0,0.0324044,-0.013526,0,-0.000299521,0,0,0,0.0358183,0.000486411,0.0108914,-0.186816,0.015732,0.031448,1.02779e-06,0.6,0.26,0
0.0302239,0.00471383,0.0358473,0.000265784,0.0108339,7.70832e-05,0,0,0.0325174,-0.0137386,0,0.000200416,0,0,0,0.0358475,0.000265617,0.0108339,0.124124,0.015649,0.0316499,1.03737e-06,0.62,0.26,0
0.0308759,0.00476943,0.0359141,-0.000131035,0.0107349,0.000226634,0,0,0.0327329,-0.0141257,0,0.00058925,0,0,0,0.0359155,-0.00013246,0.0107349,0.36023,0.015506,0.0320282,1.05585e-06,0.64,0.26,0
0.0315332,0.00482839,0.0360712,-0.000565798,0.0106516,0.000266855,0,0,0.0330454,-0.0145826,0,0.000693822,0,0,0,0.0360731,-0.000567742,0.0106516,0.417299,0.0153857,0.0325168,1.08331e-06,0.66,0.26,0
0.0321978,0.00488348,0.0361956,-0.000969847,0.0105677,0.000263535,0,0,0.0333162,-0.0149988,0,0.000685192,0,0,0,0.0361974,-0.000971716,0.0105677,0.40625,0.0152645,0.0329514,1.10681e-06,0.68,0.26,0
0.0328658,0.00493552,0.0368364,-0.000724913,0.0108334,0.00018258,0,0,0.0338038,-0.0150259,0,0.000474707,0,0,0,0.0368373,-0.0007258,0.0108334,0.278497,0.0156483,0.0333226,1.15827e-06,0.7,0.26,0
0.0335499,0.00498093,0.0368208,-0.000696309,0.0108373,0.000713811,0,0,0.0337785,-0.0149937,0,0.00185591,0,0,0,0.0368344,-0.000709885,0.0108373,1.0896,0.0156539,0.0333073,1.1575e-06,0.72,0.26,0
0.034217,0.00505352,0.0330402,-0.000576045,0.00973924,0.000989719,0,0,0.0417953,-0.0183473,0,0.00380468,0,0,0,0.0330706,-0.000606452,0.00973924,1.77534,0.0140678,0.0298796,9.79912e-07,0.74,0.26,0
0.0351373,0.00531986,0.0412114,-0.000234563,0.012293,-0.000740593,0,0,0.0521794,-0.0223395,0,-0.00302833,0,0,0,0.0412266,-0.000249802,0.012293,-1.11909,0.0177566,0.0368437,1.83773e-06,0.76,0.26,0
0.0364274,0.00571858,0.0357878,0.00186164,0.0112948,-0.000311484,0,0,0.0636817,-0.0245263,0,-0.00161972,0,0,0,0.0357907,0.00185878,0.0112948,-0.525987,0.0163148,0.0303353,9.79946e-07,0.78,0.26,0
0.0376846,0.00595115,0.0348421,0.00128568,0.0108383,-0.000849507,0,0,0.0624098,-0.0248369,0,-0.00441744,0,0,0,0.0348636,0.00126419,0.0108383,-1.44925,0.0156554,0.0299816,9.23259e-07,0.8,0.26,0
0.0389238,0.00612254,0.0343176,0.000886858,0.0105613,-0.000938053,0,0,0.0617662,-0.0251536,0,-0.00487788,0,0,0,0.0343439,0.000860557,0.0105613,-1.60601,0.0152553,0.02984,8.94278e-07,0.82,0.26,0
0.0401552,0.00625049,0.0340173,0.000516322,0.0103601,-0.000953954,0,0,0.0615087,-0.0255938,0,-0.00496056,0,0,0,0.0340444,0.000489179,0.0103601,-1.62976,0.0149646,0.0298692,8.81751e-07,0.84,0.26,0
0.0413841,0.00634672,0.0338337,0.000160119,0.0101981,-0.000902569,0,0,0.0614524,-0.0260989,0,-0.00469336,0,0,0,0.0338579,0.000135945,0.0101981,-1.53426,0.0147306,0.029985,8.77294e-07,0.86,0.26,0
0.0426133,0.00641944,0.0337175,-0.000145504,0.0100716,-0.000804948,0,0,0.0614793,-0.0265644,0,-0.00418573,0,0,0,0.0337366,-0.000164628,0.0100716,-1.36094,0.0145479,0.0301173,8.76209e-07,0.88,0.26,0
0.0438433,0.00647466,0.0336314,-0.000396614,0.00997045,-0.000681155,0,0,0.0615186,-0.0269544,0,-0.003542,0,0,0,0.0336451,-0.000410243,0.00997045,-1.1463,0.0144018,0.0302325,8.7576e-07,0.9,0.26,0
0.0450741,0.00651627,0.033563,-0.000595078,0.00989039,-0.000546215,0,0,0.0615489,-0.0272622,0,-0.00284032,0,0,0,0.0335718,-0.00060381,0.00989039,-0.915892,0.0142861,0.0303225,8.75221e-07,0.92,0.26,0
0.0463053,0.00654675,0.0335092,-0.000744469,0.00982942,-0.000408206,0,0,0.0615675,-0.0274921,0,-0.00212267,0,0,0,0.0335141,-0.000749333,0.00982942,-0.682673,0.0141981,0.0303879,8.74557e-07,0.94,0.26,0
0.0475368,0.00656764,0.03347,-0.00084834,0.00978649,-0.000270756,0,0,0.061577,-0.0276505,0,-0.00140793,0,0,0,0.0334721,-0.000850476,0.00978649,-0.452001,0.014136,0.0304318,8.73921e-07,0.96,0.26,0
0.0487684,0.00657986,0.033446,-0.000909491,0.00976095,-0.000134839,0,0,0.0615811,-0.0277431,0,-0.000701165,0,0,0,0.0334465,-0.00091002,0.00976095,-0.224872,0.0140992,0.0304569,8.7347e-07,0.98,0.26,0
0.05,0.00658388,0.0334379,-0.000929677,0.00975248,3.86701e-05,0,0,0.0615822,-0.0277736,0,0.000201084,0,0,0,0.033438,-0.00092972,0.00975248,0.0644685,0.0140869,0.0304651,8.73312e-07,1,0.26,0
0,0,0.0298262,0.0127827,0.0127827,0.00364529,0,0,0.0443133,-1.0842e-19,0,0.0189555,0,0,0,0.0305732,0.0120357,0.0127827,11.5797,0.0184639,0.0181755,3.06621e-07,0,0.28,0
0.000886265,0.00037911,0.0297148,0.0115037,0.0123655,0.00363492,0,0,0.045108,-0.0022408,0,0.0189016,0,0,0,0.0304135,0.010805,0.0123655,10.8809,0.0178613,0.0188767,3.37513e-07,0.02,0.28,0
0.00180432,0.000753507,0.0301404,0.0104788,0.0121858,0.0035898,0,0,0.046682,-0.00443801,0,0.0186669,0,0,0,0.0307753,0.00984391,0.0121858,10.0301,0.0176016,0.0198643,3.83769e-07,0.04,0.28,0
0.00275354,0.00112153,0.0305572,0.00948058,0.0120113,0.00352104,0,0,0.0482192,-0.00657996,0,0.0183094,0,0,0,0.0311299,0.00890791,0.0120113,9.23771,0.0173497,0.0208442,4.30583e-07,0.06,0.28,0
0.00373309,0.001481,0.0309621,0.00851765,0.0118439,0.00342505,0,0,0.0497072,-0.00864831,0,0.0178103,0,0,0,0.0314731,0.00800662,0.0118439,8.48617,0.0171079,0.0218026,4.77186e-07,0.08,0.28,0
0.00474183,0.00182947,0.0313515,0.00760017,0.0116855,0.00330172,0,0,0.0511315,-0.0106218,0,0.017169,0,0,0,0.0318019,0.00714973,0.0116855,7.76862,0.016879,0.0227263,5.22827e-07,0.1,0.28,0
0.00577835,0.00216442,0.0317222,0.00673814,0.0115381,0.00315402,0,0,0.0524787,-0.0124799,0,0.0164009,0,0,0,0.0321143,0.00634613,0.0115381,7.08502,0.0166662,0.0236044,5.6685e-07,0.12,0.28,0
0.00684098,0.00248348,0.0320724,0.00594041,0.0114039,0.00298724,0,0,0.0537383,-0.0142049,0,0.0155336,0,0,0,0.0324096,0.00560328,0.0114039,6.439,0.0164722,0.0244281,6.0874e-07,0.14,0.28,0
0.00792788,0.00278459,0.0324015,0.00521404,0.0112847,0.00280804,0,0,0.0549038,-0.0157836,0,0.0146018,0,0,0,0.0326885,0.00492704,0.0112847,5.83569,0.0163001,0.0251917,6.48154e-07,0.16,0.28,0
0.00903713,0.00306598,0.0327104,0.00456427,0.0111824,0.00262364,0,0,0.0559727,-0.0172071,0,0.0136429,0,0,0,0.0329528,0.0043218,0.0111824,5.28021,0.0161523,0.0258917,6.84917e-07,0.18,0.28,0
0.0101668,0.0033263,0.0330013,0.00399476,0.0110988,0.00244093,0,0,0.0569465,-0.0184706,0,0.0126928,0,0,0,0.0332053,0.00379079,0.0110988,4.77672,0.0160316,0.0265266,7.19e-07,0.2,0.28,0
0.011315,0.00356447,0.0332779,0.00350812,0.0110358,0.00226585,0,0,0.0578295,-0.019572,0,0.0117824,0,0,0,0.0334494,0.00333665,0.0110358,4.32769,0.0159406,0.0270963,7.50489e-07,0.22,0.28,0
0.01248,0.00377963,0.0335446,0.0031065,0.0109953,0.00210272,0,0,0.0586281,-0.020511,0,0.0109341,0,0,0,0.0336892,0.00296192,0.0109953,3.93319,0.0158821,0.0276017,7.79555e-07,0.24,0.28,0
0.0136601,0.00397096,0.033807,0.00279219,0.0109798,0.00195354,0,0,0.0593509,-0.0212877,0,0.0101584,0,0,0,0.0339296,0.00266963,0.0109798,3.59,0.0158597,0.0280441,8.06441e-07,0.26,0.28,0
0.014854,0.00413748,0.0340726,0.00256829,0.0109923,0.00181703,0,0,0.0600088,-0.0219023,0,0.00944855,0,0,0,0.034177,0.00246384,0.0109923,3.29003,0.0158777,0.0284253,8.31481e-07,0.28,0.28,0
0.0160605,0.00427768,0.0343519,0.00243922,0.0110373,0.00168704,0,0,0.0606179,-0.0223551,0,0.00877263,0,0,0,0.0344408,0.00235028,0.0110373,3.01769,0.0159428,0.0287488,8.55198e-07,0.3,0.28,0
0.0172787,0.00438911,0.0346625,0.00241168,0.0111222,0.00155023,0,0,0.0612046,-0.0226475,0,0.00806122,0,0,0,0.0347368,0.00233733,0.0111222,2.74566,0.0160655,0.029022,8.78532e-07,0.32,0.28,0
0.0185087,0.00446765,0.0350354,0.00249711,0.0112597,0.00138133,0,0,0.0618166,-0.0227829,0,0.00718292,0,0,0,0.0350939,0.00243857,0.0112597,2.42653,0.0162641,0.0292596,9.03302e-07,0.34,0.28,0
0.0197514,0.00450644,0.0355266,0.00271927,0.0114738,0.0011349,0,0,0.0625374,-0.0227617,0,0.0059015,0,0,0,0.0355658,0.00268005,0.0114738,1.97888,0.0165732,0.0294892,9.32971e-07,0.36,0.28,0
0.0210102,0.00449416,0.0362415,0.00314916,0.0118172,0.000706159,0,0,0.0635032,-0.0225369,0,0.00367203,0,0,0,0.0362565,0.0031341,0.0118172,1.2219,0.0170693,0.0297471,9.73682e-07,0.38,0.28,0
0.0222915,0.0044078,0.036899,0.00382466,0.0122171,-3.9829e-05,0,0,0.0641729,-0.0218203,0,-0.000207111,0,0,0,0.036899,0.00382461,0.0122171,-0.068997,0.0176469,0.0297788,1.00185e-06,0.4,0.28,0
0.0235771,0.0042271,0.036196,0.00113763,0.0112001,-0.000113239,0,0,0.0485641,-0.0174416,0,-0.00127578,0,0,0,0.0362087,0.00112496,0.0112001,-0.296329,0.0161779,0.0313683,1.00407e-06,0.42,0.28,0
0.0242341,0.0041524,0.0369783,0.000376124,0.0112063,-0.000943404,0,0,0.0335036,-0.0140793,0,-0.00245285,0,0,0,0.0370026,0.000351824,0.0112063,-1.47547,0.0161869,0.0326079,1.13829e-06,0.44,0.28,0
0.0249172,0.00417297,0.0373234,0.000360984,0.0113053,-5.00072e-05,0,0,0.0338235,-0.0142276,0,-0.000130019,0,0,0,0.0373235,0.000360916,0.0113053,-0.0775165,0.0163299,0.0328858,1.16795e-06,0.46,0.28,0
0.025587,0.00420407,0.0367039,-0.000117926,0.0109758,-0.000149868,0,0,0.0334465,-0.0144218,0,-0.000389656,0,0,0,0.0367045,-0.000118536,0.0109758,-0.233193,0.0158539,0.0327184,1.12642e-06,0.48,0.28,0
0.0262551,0.0042394,0.0365017,-0.000107876,0.0109181,-0.000249928,0,0,0.0332586,-0.0143338,0,-0.000649813,0,0,0,0.0365034,-0.000109582,0.0109181,-0.391126,0.0157706,0.0325325,1.10774e-06,0.5,0.28,0
0.0269174,0.00426978,0.0362482,-3.41121e-05,0.0108642,-0.000391041,0,0,0.0329992,-0.0141678,0,-0.00101671,0,0,0,0.0362524,-3.83261e-05,0.0108642,-0.617422,0.0156928,0.0322525,1.08281e-06,0.52,0.28,0
0.027575,0.00429729,0.0360835,0.000168718,0.0108757,-0.000435119,0,0,0.0327702,-0.013919,0,-0.00113131,0,0,0,0.0360888,0.000163447,0.0108757,-0.69402,0.0157093,0.0319459,1.06179e-06,0.54,0.28,0
0.0282282,0.00432485,0.0359472,0.00032753,0.0108824,-0.000387627,0,0,0.0325842,-0.0137214,0,-0.00100783,0,0,0,0.0359514,0.000323312,0.0108824,-0.623416,0.0157191,0.0316963,1.0446e-06,0.56,0.28,0
0.0288784,0.00435619,0.0358682,0.000387017,0.0108766,-0.000266093,0,0,0.0324891,-0.0136364,0,-0.000691841,0,0,0,0.0358702,0.000385022,0.0108766,-0.42966,0.0157106,0.0315749,1.03554e-06,0.58,0.28,0
0.0295277,0.00439349,0.0358465,0.000311433,0.0108474,-0.000112646,0,0,0.0324988,-0.0136967,0,-0.000292878,0,0,0,0.0358468,0.000311076,0.0108474,-0.181624,0.0156684,0.0316131,1.03587e-06,0.6,0.28,0
0.0301784,0.00443714,0.0358805,9.88779e-05,0.0107938,3.19147e-05,0,0,0.0326127,-0.0139034,0,8.29782e-05,0,0,0,0.0358805,9.88494e-05,0.0107938,0.0511038,0.0155911,0.0318124,1.04553e-06,0.62,0.28,0
0.0308322,0.00448566,0.0359658,-0.000217973,0.0107243,0.000123282,0,0,0.0328139,-0.014225,0,0.000320532,0,0,0,0.0359662,-0.000218393,0.0107243,0.195209,0.0154907,0.032142,1.063e-06,0.64,0.28,0
0.0314909,0.00453585,0.0360656,-0.000584006,0.0106445,0.000138351,0,0,0.0330474,-0.014597,0,0.000359712,0,0,0,0.0360661,-0.000584528,0.0106445,0.216286,0.0153753,0.032524,1.08319e-06,0.66,0.28,0
0.0321541,0.00458499,0.0362271,-0.000823487,0.0106211,6.09915e-05,0,0,0.0332879,-0.014878,0,0.000158578,0,0,0,0.0362272,-0.000823587,0.0106211,0.0943181,0.0153416,0.0328589,1.10503e-06,0.68,0.28,0
0.0328224,0.00463068,0.036319,-0.00098912,0.010599,2.37148e-06,0,0,0.0334361,-0.0150645,0,6.16585e-06,0,0,0,0.036319,-0.00098912,0.010599,0.00364199,0.0153096,0.0330734,1.11843e-06,0.7,0.28,0
0.0334916,0.00468053,0.0368859,-0.000676959,0.0108627,-8.64183e-05,0,0,0.0338302,-0.0150015,0,-0.000224688,0,0,0,0.0368861,-0.000677158,0.0108627,-0.131815,0.0156906,0.0333271,1.16131e-06,0.72,0.28,0
0.0341756,0.00474267,0.0365368,-0.00105936,0.0106432,0.000849944,0,0,0.0336617,-0.0152134,0,0.00220985,0,0,0,0.0365561,-0.00107856,0.0106432,1.29441,0.0153736,0.0333559,1.14301e-06,0.74,0.28,0
0.034838,0.00491057,0.0357145,-0.000596664,0.0105354,0.000271341,0,0,0.0489055,-0.0192955,0,0.00208044,0,0,0,0.0357351,-0.000617248,0.0105354,0.570849,0.0152177,0.0323471,1.00743e-06,0.76,0.28,0
0.0361319,0.00521525,0.0364882,0.00224235,0.0116192,0.00041289,0,0,0.0646595,-0.0243797,0,0.00214703,0,0,0,0.0364932,0.00223737,0.0116192,0.690661,0.0167832,0.030661,1.02654e-06,0.78,0.28,0
0.0374244,0.00544592,0.0359187,0.00160996,0.0112586,-0.000191128,0,0,0.0641162,-0.0250864,0,-0.000993864,0,0,0,0.0359197,0.0016089,0.0112586,-0.319171,0.0162624,0.0306474,9.99373e-07,0.8,0.28,0
0.0386965,0.00561169,0.0352614,0.00107696,0.0109015,-0.000580157,0,0,0.0633357,-0.0255438,0,-0.00301682,0,0,0,0.0352713,0.00106711,0.0109015,-0.972015,0.0157466,0.0305002,9.62849e-07,0.82,0.28,0
0.0399579,0.00573097,0.0348441,0.000526712,0.0106113,-0.000737644,0,0,0.0630055,-0.0262198,0,-0.00383575,0,0,0,0.03486,0.000510863,0.0106113,-1.2308,0.0153274,0.0305768,9.46346e-07,0.84,0.28,0
0.0412167,0.00581665,0.0346097,9.11816e-05,0.0104103,-0.000749852,0,0,0.0629185,-0.0268296,0,-0.00389923,0,0,0,0.034626,7.49001e-05,0.0104103,-1.24386,0.015037,0.0307164,9.4025e-07,0.86,0.28,0
0.0424746,0.00588005,0.0344352,-0.000250593,0.0102554,-0.000681094,0,0,0.0628674,-0.0273155,0,-0.00354169,0,0,0,0.0344485,-0.000263962,0.0102554,-1.12449,0.0148133,0.0308295,9.35592e-07,0.88,0.28,0
0.0437314,0.0059277,0.0342904,-0.000516706,0.0101321,-0.000577948,0,0,0.0628116,-0.027687,0,-0.00300533,0,0,0,0.0343,-0.0005263,0.0101321,-0.951006,0.0146353,0.0309076,9.30916e-07,0.9,0.28,0
0.0449871,0.00596349,0.034171,-0.00071956,0.0100354,-0.000462318,0,0,0.0627525,-0.027963,0,-0.00240405,0,0,0,0.0341771,-0.000725685,0.0100354,-0.759021,0.0144956,0.0309583,9.26455e-07,0.92,0.28,0
0.0462415,0.0059897,0.034077,-0.000868549,0.00996255,-0.000344221,0,0,0.0626977,-0.0281608,0,-0.00178995,0,0,0,0.0340804,-0.000871939,0.00996255,-0.564303,0.0143903,0.0309897,9.22602e-07,0.94,0.28,0
0.047495,0.00600768,0.0340093,-0.000970454,0.00991165,-0.000227544,0,0,0.0626538,-0.0282935,0,-0.00118323,0,0,0,0.0340108,-0.000971934,0.00991165,-0.372689,0.0143168,0.0310081,9.19661e-07,0.96,0.28,0
0.0487477,0.00601821,0.0339684,-0.00102985,0.00988156,-0.000113062,0,0,0.0626258,-0.0283697,0,-0.000587921,0,0,0,0.0339688,-0.00103021,0.00988156,-0.185091,0.0142734,0.0310176,9.17826e-07,0.98,0.28,0
0.05,0.00602167,0.0339547,-0.00104936,0.00987161,3.33519e-05,0,0,0.0626161,-0.0283945,0,0.00017343,0,0,0,0.0339548,-0.00104939,0.00987161,0.0545913,0.014259,0.0310206,9.17207e-07,1,0.28,0
0,0,0.0298637,0.0127987,0.0127987,0.00321684,0,0,0.0443689,1.19262e-18,0,0.0167276,0,0,0,0.0304499,0.0122125,0.0127987,10.3285,0.018487,0.0179515,2.96049e-07,0,0.3,0
0.000887378,0.000334551,0.0297528,0.0115345,0.0123862,0.00320739,0,0,0.0451532,-0.00221446,0,0.0166784,0,0,0,0.030301,0.0109863,0.0123862,9.69873,0.0178911,0.0186542,3.27065e-07,0.02,0.3,0
0.00180613,0.00066543,0.0301745,0.0105306,0.0122115,0.0031689,0,0,0.0467038,-0.00437054,0,0.0164783,0,0,0,0.0306731,0.010032,0.0122115,8.94072,0.0176389,0.0196422,3.73111e-07,0.04,0.3,0
0.00275553,0.000991133,0.0305886,0.00955808,0.012044,0.00310913,0,0,0.0482159,-0.00646338,0,0.0161675,0,0,0,0.0310386,0.00910806,0.012044,8.23589,0.0173969,0.0206199,4.19671e-07,0.06,0.3,0
0.00373476,0.00130976,0.0309933,0.00862246,0.0118847,0.00302528,0,0,0.0496823,-0.00848191,0,0.0157315,0,0,0,0.0313952,0.00822056,0.0118847,7.56724,0.0171668,0.0215772,4.66191e-07,0.08,0.3,0
0.00474282,0.00161921,0.0313868,0.00773077,0.0117353,0.0029172,0,0,0.0510939,-0.0104117,0,0.0151695,0,0,0,0.0317412,0.00737633,0.0117353,6.92733,0.0169509,0.0225043,5.12114e-07,0.1,0.3,0
0.00577852,0.00191732,0.0317671,0.00689051,0.0115973,0.00278706,0,0,0.0524415,-0.0122376,0,0.0144927,0,0,0,0.0320755,0.00658208,0.0115973,6.31486,0.0167516,0.0233926,5.56933e-07,0.12,0.3,0
0.00684048,0.00220203,0.0321331,0.0061088,0.0114726,0.00263887,0,0,0.0537173,-0.0139458,0,0.0137221,0,0,0,0.032398,0.00584392,0.0114726,5.73208,0.0165715,0.024235,6.00238e-07,0.14,0.3,0
0.00792722,0.00247152,0.0324847,0.00539184,0.011363,0.0024779,0,0,0.0549165,-0.0155249,0,0.0128851,0,0,0,0.0327095,0.00516708,0.011363,5.18295,0.0164132,0.0250264,6.41739e-07,0.16,0.3,0
0.00903714,0.00272421,0.032823,0.00474476,0.0112703,0.00230996,0,0,0.0560369,-0.0169665,0,0.0120118,0,0,0,0.0330117,0.00455599,0.0112703,4.6718,0.0162793,0.0257634,6.81276e-07,0.18,0.3,0
0.0101687,0.00295884,0.0331501,0.00417177,0.0111966,0.00214079,0,0,0.0570792,-0.0182644,0,0.0111321,0,0,0,0.0333074,0.00401447,0.0111966,4.20236,0.0161728,0.0264438,7.18801e-07,0.2,0.3,0
0.0113203,0.00317441,0.0334692,0.00367664,0.0111438,0.0019754,0,0,0.0580462,-0.0194145,0,0.0102721,0,0,0,0.0335996,0.00354624,0.0111438,3.77696,0.0160965,0.0270665,7.54357e-07,0.22,0.3,0
0.0124905,0.0033701,0.0337842,0.00326329,0.0111142,0.00181738,0,0,0.0589419,-0.0204125,0,0.0094504,0,0,0,0.033892,0.00315545,0.0111142,3.39572,0.0160539,0.0276307,7.88032e-07,0.24,0.3,0
0.013678,0.00354515,0.0340995,0.00293656,0.0111108,0.00166805,0,0,0.0597706,-0.0212531,0,0.00867388,0,0,0,0.0341886,0.00284753,0.0111108,3.05523,0.016049,0.0281347,8.19921e-07,0.26,0.3,0
0.0148814,0.00369863,0.0344202,0.00270329,0.011137,0.00152506,0,0,0.0605362,-0.0219278,0,0.00793032,0,0,0,0.0344934,0.00263013,0.011137,2.74654,0.0160868,0.0285758,8.50076e-07,0.28,0.3,0
0.0160994,0.00382916,0.034752,0.00257353,0.0111977,0.00138024,0,0,0.0612412,-0.0224227,0,0.00717723,0,0,0,0.0348111,0.00251444,0.0111977,2.4516,0.0161744,0.0289488,8.78459e-07,0.3,0.3,0
0.017331,0.00393442,0.0351018,0.00256238,0.0112992,0.00121607,0,0,0.0618866,-0.0227159,0,0.00632358,0,0,0,0.0351472,0.00251699,0.0112992,2.1373,0.0163211,0.0292453,9.04887e-07,0.32,0.3,0
0.0185749,0.00401052,0.0354759,0.0026924,0.0114505,0.00100062,0,0,0.062466,-0.022771,0,0.0052032,0,0,0,0.0355064,0.00266189,0.0114505,1.74661,0.0165396,0.0294507,9.28778e-07,0.34,0.3,0
0.0198297,0.00405127,0.0358683,0.00300059,0.0116607,0.000680105,0,0,0.0629398,-0.0225162,0,0.00353655,0,0,0,0.0358823,0.00298652,0.0116607,1.1849,0.0168432,0.0295302,9.47994e-07,0.36,0.3,0
0.0210925,0.00404731,0.0361628,0.00353419,0.0119091,0.00018737,0,0,0.0630597,-0.0217748,0,0.000974325,0,0,0,0.0361639,0.00353311,0.0119091,0.329007,0.017202,0.0293532,9.51198e-07,0.38,0.3,0
0.022352,0.00398985,0.0360993,0.00453355,0.0121899,-0.000402578,0,0,0.0621646,-0.0199064,0,-0.0020934,0,0,0,0.0361045,0.00452842,0.0121899,-0.730569,0.0176076,0.0285277,9.08772e-07,0.4,0.3,0
0.0235791,0.00390519,0.0361235,0.00226557,0.0115167,-0.000761996,0,0,0.0473267,-0.0160353,0,-0.00312111,0,0,0,0.0361419,0.00224715,0.0115167,-1.3313,0.0166352,0.0304011,9.76431e-07,0.42,0.3,0
0.0242451,0.00387807,0.0362367,0.000105117,0.0109025,-0.00027279,0,0,0.0329344,-0.0140366,0,-0.000709254,0,0,0,0.0362387,0.000103057,0.0109025,-0.432545,0.0157481,0.0321274,1.07705e-06,0.44,0.3,0
0.0248964,0.00388747,0.0359617,-5.0711e-05,0.0107733,-1.46863e-05,0,0,0.0327449,-0.0140712,0,-3.81843e-05,0,0,0,0.0359617,-5.0717e-05,0.0107733,-0.0233659,0.0155614,0.032004,1.05736e-06,0.46,0.3,0
0.0255549,0.00391971,0.0361916,3.07904e-05,0.0108667,2.75791e-05,0,0,0.0329224,-0.0140867,0,7.17055e-05,0,0,0,0.0361916,3.07693e-05,0.0108667,0.0436982,0.0156964,0.0321433,1.07517e-06,0.48,0.3,0
0.0262133,0.00395448,0.0361586,-4.01613e-06,0.0108464,-0.000119077,0,0,0.0329059,-0.0141055,0,-0.000309599,0,0,0,0.036159,-4.40822e-06,0.0108464,-0.188661,0.015667,0.0321424,1.07338e-06,0.5,0.3,0
0.0268711,0.00398785,0.0361085,6.68257e-05,0.0108526,-0.000244332,0,0,0.0328326,-0.0140215,0,-0.000635262,0,0,0,0.0361101,6.51694e-05,0.0108526,-0.388393,0.015676,0.0320433,1.06682e-06,0.52,0.3,0
0.0275266,0.00401883,0.0360228,0.000161664,0.0108553,-0.000311779,0,0,0.0327177,-0.0139018,0,-0.000810624,0,0,0,0.0360255,0.000158954,0.0108553,-0.498082,0.0156799,0.0318933,1.05635e-06,0.54,0.3,0
0.0281798,0.00404945,0.0359488,0.000244451,0.010858,-0.000298754,0,0,0.0326181,-0.0137976,0,-0.000776761,0,0,0,0.0359513,0.000241952,0.010858,-0.479374,0.0156838,0.0317611,1.04719e-06,0.56,0.3,0
0.0288314,0.00408194,0.0358987,0.000255268,0.0108462,-0.000224719,0,0,0.0325683,-0.0137682,0,-0.000584271,0,0,0,0.0359001,0.000253851,0.0108462,-0.361211,0.0156667,0.0317061,1.04233e-06,0.58,0.3,0
0.0294826,0.00411789,0.0358864,0.000168163,0.0108164,-0.000120439,0,0,0.032591,-0.0138427,0,-0.000313142,0,0,0,0.0358868,0.000167756,0.0108164,-0.193194,0.0156236,0.031763,1.0439e-06,0.6,0.3,0
0.030135,0.00415769,0.0359115,-1.83466e-05,0.010768,-2.24004e-05,0,0,0.0326866,-0.0140222,0,-5.82411e-05,0,0,0,0.0359115,-1.83606e-05,0.010768,-0.035721,0.0155537,0.0319335,1.05193e-06,0.62,0.3,0
0.03079,0.00420043,0.0359575,-0.000280469,0.0107031,3.88657e-05,0,0,0.0328307,-0.0142787,0,0.000101051,0,0,0,0.0359576,-0.000280511,0.0107031,0.0614504,0.0154601,0.0321841,1.06417e-06,0.64,0.3,0
0.0314482,0.00424451,0.0360033,-0.000558424,0.0106335,4.44744e-05,0,0,0.0329808,-0.0145495,0,0.000115634,0,0,0,0.0360034,-0.000558479,0.0106335,0.0696956,0.0153594,0.0324473,1.07679e-06,0.66,0.3,0
0.0321093,0.00428836,0.0359788,-0.000811919,0.0105501,1.56352e-05,0,0,0.0330573,-0.0147706,0,4.06515e-05,0,0,0,0.0359788,-0.000811926,0.0105501,0.0243494,0.015239,0.0326287,1.08227e-06,0.68,0.3,0
0.0327705,0.00433294,0.0358442,-0.000956644,0.0104663,-2.32269e-05,0,0,0.0329913,-0.0148498,0,-6.03899e-05,0,0,0,0.0358442,-0.000956659,0.0104663,-0.0361622,0.015118,0.0326254,1.07456e-06,0.7,0.3,0
0.0334289,0.00438087,0.0353448,-0.00116896,0.0102528,5.48858e-05,0,0,0.0326197,-0.0148482,0,0.000142703,0,0,0,0.0353449,-0.00116905,0.0102528,0.0861241,0.0148095,0.0323523,1.03671e-06,0.72,0.3,0
0.0340753,0.00444499,0.035797,-0.00102539,0.0104315,0.000267215,0,0,0.0329752,-0.014894,0,0.000694759,0,0,0,0.035799,-0.00102733,0.0104315,0.415758,0.0150677,0.0326419,1.07261e-06,0.74,0.3,0
0.0347479,0.00454804,0.0354183,0.000103508,0.0106565,0.000733654,0,0,0.0475652,-0.0182919,0,0.00331244,0,0,0,0.0354392,8.26323e-05,0.0106565,1.28443,0.0153928,0.0315022,9.78392e-07,0.76,0.3,0
0.0359779,0.00474339,0.0354874,0.00266184,0.0114448,0.000806134,0,0,0.0625109,-0.0228357,0,0.0041919,0,0,0,0.0355072,0.00264206,0.0114448,1.40595,0.0165314,0.029467,9.29537e-07,0.78,0.3,0
0.0372484,0.00494769,0.0358462,0.00222626,0.0114217,0.00019251,0,0,0.0635035,-0.0239082,0,0.00100105,0,0,0,0.0358473,0.00222515,0.0114217,0.328065,0.016498,0.0300968,9.72039e-07,0.8,0.3,0
0.0385181,0.00510079,0.0355334,0.00123011,0.0110291,-0.000308002,0,0,0.0637113,-0.0254772,0,-0.00160161,0,0,0,0.0355362,0.00122735,0.0110291,-0.514391,0.0159309,0.0306085,9.79738e-07,0.82,0.3,0
0.0397968,0.0052017,0.0354081,0.000534778,0.0107829,-0.000525015,0,0,0.0640257,-0.0266451,0,-0.00273008,0,0,0,0.035416,0.000526876,0.0107829,-0.862322,0.0155753,0.0310583,9.92111e-07,0.84,0.3,0
0.0410791,0.00527354,0.0352326,3.73622e-05,0.010581,-0.000548523,0,0,0.0640942,-0.0274134,0,-0.00285232,0,0,0,0.0352412,2.88154e-05,0.010581,-0.892674,0.0152837,0.0313,9.92698e-07,0.86,0.3,0
0.0423606,0.00532682,0.0350287,-0.000335645,0.0104079,-0.000499263,0,0,0.064014,-0.0279333,0,-0.00259617,0,0,0,0.0350357,-0.000342693,0.0104079,-0.80867,0.0150337,0.0314145,9.86437e-07,0.88,0.3,0
0.0436397,0.00536718,0.0348372,-0.000614034,0.0102669,-0.000421832,0,0,0.0638826,-0.0282906,0,-0.00219353,0,0,0,0.0348422,-0.000619053,0.0102669,-0.681631,0.01483,0.0314639,9.78173e-07,0.9,0.3,0
0.0449159,0.00539775,0.0346738,-0.000819631,0.0101562,-0.000335478,0,0,0.0637456,-0.0285373,0,-0.00174449,0,0,0,0.0346769,-0.000822801,0.0101562,-0.541486,0.0146701,0.0314804,9.70111e-07,0.92,0.3,0
0.0461895,0.00542032,0.0345446,-0.000967153,0.0100732,-0.000248352,0,0,0.0636255,-0.028705,0,-0.00129143,0,0,0,0.0345463,-0.000968889,0.0100732,-0.400673,0.0145502,0.0314816,9.63289e-07,0.94,0.3,0
0.0474609,0.00543591,0.0344517,-0.00106645,0.0100156,-0.000163399,0,0,0.0635339,-0.0288133,0,-0.000849675,0,0,0,0.0344525,-0.0010672,0.0100156,-0.263578,0.0144669,0.0314773,9.58199e-07,0.96,0.3,0
0.0487308,0.00544507,0.0343959,-0.00112374,0.00998165,-8.09411e-05,0,0,0.0634771,-0.028874,0,-0.000420893,0,0,0,0.0343961,-0.00112393,0.00998165,-0.130563,0.0144179,0.0314728,9.55076e-07,0.98,0.3,0
0.05,0.0054481,0.0343773,-0.00114247,0.00997045,2.91119e-05,0,0,0.0634578,-0.0288936,0,0.000151382,0,0,0,0.0343773,-0.0011425,0.00997045,0.0469595,0.0144018,0.031471,9.54027e-07,1,0.3,0
0,0,0.0298837,0.0128073,0.0128073,0.00279357,0,0,0.0443986,-1.0842e-19,0,0.0145266,0,0,0,0.0303291,0.0123619,0.0128073,9.05868,0.0184994,0.0177487,2.86549e-07,0,0.32,0
0.000887972,0.000290532,0.0297737,0.0115593,0.0123999,0.00278471,0,0,0.0451718,-0.00218546,0,0.0144805,0,0,0,0.0301899,0.0111431,0.0123999,8.50108,0.017911,0.0184505,3.17546e-07,0.02,0.32,0
0.00180687,0.000578686,0.0301907,0.0105752,0.0122298,0.00275281,0,0,0.0466984,-0.00430183,0,0.0143146,0,0,0,0.0305697,0.0101962,0.0122298,7.8391,0.0176653,0.0194367,3.63245e-07,0.04,0.32,0
0.00275591,0.000862996,0.0306008,0.00962608,0.0120681,0.00270038,0,0,0.0481851,-0.00634914,0,0.014042,0,0,0,0.0309428,0.009284,0.0120681,7.21971,0.0174316,0.0204097,4.09393e-07,0.06,0.32,0
0.00373427,0.00114173,0.0310035,0.00871494,0.0119155,0.00262555,0,0,0.0496287,-0.00832155,0,0.0136529,0,0,0,0.0313086,0.00840983,0.0119155,6.62846,0.0172113,0.0213628,4.55599e-07,0.08,0.32,0
0.00474106,0.001413,0.0313981,0.0078466,0.0117734,0.00252829,0,0,0.0510241,-0.0102097,0,0.0131471,0,0,0,0.0316664,0.00757825,0.0117734,6.05881,0.017006,0.0222887,5.01457e-07,0.1,0.32,0
0.00577524,0.00167491,0.0317835,0.00702667,0.0116431,0.00241031,0,0,0.0523652,-0.0120026,0,0.0125336,0,0,0,0.032016,0.00679419,0.0116431,5.50933,0.0168178,0.0231809,5.46589e-07,0.12,0.32,0
0.00683567,0.00192565,0.0321595,0.00626083,0.0115261,0.00227477,0,0,0.0536469,-0.0136897,0,0.0118288,0,0,0,0.0323578,0.00606255,0.0115261,4.98165,0.0166488,0.0240338,5.90677e-07,0.14,0.32,0
0.00792111,0.00216359,0.0325263,0.00555445,0.0114242,0.00212583,0,0,0.0548654,-0.0152614,0,0.0110543,0,0,0,0.0326928,0.00538793,0.0114242,4.47901,0.0165017,0.024843,6.33491e-07,0.16,0.32,0
0.00903028,0.00238733,0.032885,0.00491241,0.0113392,0.00196822,0,0,0.0560191,-0.0167097,0,0.0102348,0,0,0,0.0330229,0.0047746,0.0113392,4.00517,0.0163789,0.0256051,6.74895e-07,0.18,0.32,0
0.0101619,0.00259572,0.0332379,0.00433924,0.0112731,0.00180671,0,0,0.0571083,-0.0180281,0,0.0093949,0,0,0,0.0333504,0.00422672,0.0112731,3.56358,0.0162834,0.0263177,7.14835e-07,0.2,0.32,0
0.0113146,0.00278789,0.0335874,0.00383951,0.0112281,0.0016456,0,0,0.0581343,-0.0192103,0,0.00855713,0,0,0,0.0336782,0.00374876,0.0112281,3.15667,0.0162183,0.0269788,7.53311e-07,0.22,0.32,0
0.0124872,0.00296313,0.0339366,0.00341859,0.0112066,0.00148816,0,0,0.0590982,-0.0202488,0,0.00773843,0,0,0,0.034009,0.00334619,0.0112066,2.78512,0.0161873,0.0275858,7.90319e-07,0.24,0.32,0
0.0136785,0.00312084,0.0342881,0.00308355,0.0112115,0.00133582,0,0,0.0599991,-0.0211326,0,0.00694624,0,0,0,0.0343452,0.00302647,0.0112115,2.44677,0.0161944,0.0281338,8.25757e-07,0.26,0.32,0
0.0148872,0.00326037,0.0346427,0.0028447,0.0112462,0.00118697,0,0,0.0608309,-0.021844,0,0.00617222,0,0,0,0.034687,0.00280046,0.0112462,2.13479,0.0162446,0.0286142,8.59277e-07,0.28,0.32,0
0.0161118,0.00338078,0.0349983,0.00271761,0.0113148,0.00103503,0,0,0.0615772,-0.0223526,0,0.00538218,0,0,0,0.0350315,0.00268446,0.0113148,1.83459,0.0163436,0.0290112,8.90034e-07,0.3,0.32,0
0.0173503,0.00348047,0.0353462,0.0027259,0.0114216,0.000865636,0,0,0.0622038,-0.0226089,0,0.00450131,0,0,0,0.0353691,0.00270295,0.0114216,1.51902,0.0164979,0.0292966,9.16273e-07,0.32,0.32,0
0.0185999,0.00355681,0.0356649,0.00290526,0.011571,0.000653738,0,0,0.062644,-0.022531,0,0.00339944,0,0,0,0.0356779,0.00289222,0.011571,1.14277,0.0167137,0.0294225,9.34631e-07,0.34,0.32,0
0.0198561,0.0036058,0.0359032,0.00330584,0.0117627,0.000367404,0,0,0.0627653,-0.0219879,0,0.0019105,0,0,0,0.0359073,0.0033017,0.0117627,0.64567,0.0169906,0.029306,9.3864e-07,0.36,0.32,0
0.0211105,0.00362317,0.0359769,0.00401555,0.0119977,5.92157e-06,0,0,0.0623459,-0.0207537,0,3.07922e-05,0,0,0,0.0359769,0.00401554,0.0119977,0.0106153,0.0173301,0.0288119,9.17928e-07,0.38,0.32,0
0.0223499,0.00361154,0.03593,0.00520004,0.012339,-0.000335263,0,0,0.0613366,-0.0185613,0,-0.00174337,0,0,0,0.0359337,0.00519639,0.012339,-0.624996,0.017823,0.0278613,8.6952e-07,0.4,0.32,0
0.023564,0.00358569,0.0357314,0.00218925,0.0113762,-0.000443912,0,0,0.046838,-0.015924,0,-0.00179797,0,0,0,0.0357376,0.00218304,0.0113762,-0.780175,0.0164323,0.0300921,9.45216e-07,0.42,0.32,0
0.0242234,0.00359093,0.0357394,-0.000584829,0.0105464,-0.00032527,0,0,0.0327509,-0.0144705,0,-0.000845703,0,0,0,0.0357423,-0.000587741,0.0105464,-0.513008,0.0152336,0.0322387,1.05453e-06,0.44,0.32,0
0.024874,0.00361012,0.0357123,3.03314e-05,0.0107228,-9.90578e-05,0,0,0.0324864,-0.0139002,0,-0.00025755,0,0,0,0.0357126,3.00564e-05,0.0107228,-0.159059,0.0154885,0.0317181,1.03305e-06,0.46,0.32,0
0.0255229,0.0036406,0.03577,9.81574e-05,0.0107605,-5.96357e-05,0,0,0.0325125,-0.013861,0,-0.000155053,0,0,0,0.0357701,9.80577e-05,0.0107605,-0.0957858,0.0155429,0.0317149,1.03592e-06,0.48,0.32,0
0.0261745,0.00367518,0.0358998,0.000130104,0.010809,-0.000122266,0,0,0.0326181,-0.0138825,0,-0.000317892,0,0,0,0.0359002,0.000129686,0.010809,-0.195842,0.015613,0.0318053,1.04628e-06,0.5,0.32,0
0.0268276,0.00370892,0.0359534,0.000142876,0.0108289,-0.000207806,0,0,0.0326619,-0.0138918,0,-0.000540295,0,0,0,0.0359546,0.000141671,0.0108289,-0.332468,0.0156417,0.0318441,1.05067e-06,0.52,0.32,0
0.027481,0.00374122,0.0359647,0.000174448,0.0108417,-0.000253277,0,0,0.0326598,-0.0138675,0,-0.000658519,0,0,0,0.0359665,0.000172655,0.0108417,-0.405438,0.0156603,0.0318298,1.05072e-06,0.54,0.32,0
0.028134,0.00377294,0.0359497,0.000191878,0.0108425,-0.00024806,0,0,0.0326394,-0.0138458,0,-0.000644957,0,0,0,0.0359515,0.000190157,0.0108425,-0.397448,0.0156614,0.0318025,1.04885e-06,0.56,0.32,0
0.0287866,0.00380546,0.0359343,0.000163428,0.0108293,-0.000199926,0,0,0.0326365,-0.0138656,0,-0.000519807,0,0,0,0.0359354,0.00016231,0.0108293,-0.320217,0.0156423,0.0318105,1.04833e-06,0.58,0.32,0
0.0294395,0.00383978,0.0359321,6.57282e-05,0.0107993,-0.000129544,0,0,0.0326726,-0.0139537,0,-0.000336815,0,0,0,0.0359325,6.52604e-05,0.0107993,-0.206941,0.015599,0.0318854,1.05115e-06,0.6,0.32,0
0.0300935,0.00387625,0.0359454,-0.00010273,0.0107528,-5.97368e-05,0,0,0.0327504,-0.0141122,0,-0.000155316,0,0,0,0.0359455,-0.000102829,0.0107528,-0.0949468,0.0155318,0.0320312,1.05757e-06,0.62,0.32,0
0.0307495,0.00391452,0.0359645,-0.000321083,0.010693,-9.37529e-06,0,0,0.0328529,-0.0143183,0,-2.43758e-05,0,0,0,0.0359645,-0.000321086,0.010693,-0.0148038,0.0154455,0.0322226,1.06603e-06,0.64,0.32,0
0.0314076,0.00395388,0.0359659,-0.000558398,0.0106223,1.86908e-05,0,0,0.0329468,-0.0145349,0,4.85961e-05,0,0,0,0.0359659,-0.000558407,0.0106223,0.0293203,0.0153433,0.032414,1.07345e-06,0.66,0.32,0
0.0320673,0.00399417,0.0359259,-0.000781255,0.0105434,4.63053e-05,0,0,0.0329972,-0.014722,0,0.000120394,0,0,0,0.0359259,-0.000781313,0.0105434,0.0722774,0.0152293,0.0325572,1.07663e-06,0.68,0.32,0
0.0327275,0.00403668,0.0357667,-0.00102528,0.0104224,0.00015634,0,0,0.0329475,-0.014882,0,0.000406483,0,0,0,0.0357673,-0.00102594,0.0104224,0.24346,0.0150546,0.0326127,1.06975e-06,0.7,0.32,0
0.0333852,0.0040866,0.0353714,-0.00136126,0.0102031,0.000435124,0,0,0.0327189,-0.0150336,0,0.00113132,0,0,0,0.0353766,-0.00136641,0.0102031,0.678581,0.0147377,0.0325393,1.04504e-06,0.72,0.32,0
0.0340363,0.00414691,0.0344164,-0.00218873,0.00966831,0.000656707,0,0,0.0321726,-0.0154142,0,0.00170744,0,0,0,0.0344282,-0.00220051,0.00966831,1.02746,0.0139653,0.0323696,9.85583e-07,0.74,0.32,0
0.0346721,0.00417889,0.0344918,0.000368222,0.010458,0.00100346,0,0,0.0465907,-0.017489,0,0.00423655,0,0,0,0.0345251,0.000334918,0.010458,1.74979,0.015106,0.0304977,8.89867e-07,0.76,0.32,0
0.0358999,0.00430182,0.0349742,0.00356386,0.0115614,-0.000159457,0,0,0.0608732,-0.0207936,0,-0.000829178,0,0,0,0.034975,0.00356305,0.0115614,-0.290857,0.0166998,0.0282744,8.55339e-07,0.78,0.32,0
0.0371071,0.00448959,0.0350462,0.00233384,0.011214,-2.69866e-06,0,0,0.0619637,-0.0230885,0,-1.4033e-05,0,0,0,0.0350462,0.00233384,0.011214,-0.0047267,0.016198,0.0292996,9.0303e-07,0.8,0.32,0
0.0383784,0.0045926,0.0358284,0.00126509,0.011128,-0.000286531,0,0,0.0642209,-0.0256437,0,-0.00148996,0,0,0,0.0358308,0.00126272,0.011128,-0.474941,0.0160738,0.0308423,1.00347e-06,0.82,0.32,0
0.0396759,0.00466517,0.0359383,0.000552243,0.0109472,-0.00032091,0,0,0.064977,-0.0270268,0,-0.00166873,0,0,0,0.0359412,0.000549333,0.0109472,-0.519549,0.0158126,0.0315072,1.03643e-06,0.84,0.32,0
0.0409775,0.00472011,0.0357329,4.76312e-06,0.0107213,-0.000304522,0,0,0.0650301,-0.027863,0,-0.00158351,0,0,0,0.0357355,2.16777e-06,0.0107213,-0.488303,0.0154863,0.0317606,1.0359e-06,0.86,0.32,0
0.0422771,0.00476272,0.0354811,-0.000391456,0.0105269,-0.000267524,0,0,0.064881,-0.0283877,0,-0.00139112,0,0,0,0.0354831,-0.000393451,0.0105269,-0.427258,0.0152055,0.0318528,1.0261e-06,0.88,0.32,0
0.0435728,0.00479608,0.0352454,-0.000678414,0.0103701,-0.000221289,0,0,0.0646758,-0.0287261,0,-0.0011507,0,0,0,0.0352468,-0.000679777,0.0103701,-0.352921,0.014979,0.0318721,1.0142e-06,0.9,0.32,0
0.0448641,0.004822,0.035046,-0.000884943,0.0102483,-0.000172964,0,0,0.0644739,-0.0289465,0,-0.000899413,0,0,0,0.0350468,-0.000885776,0.0102483,-0.275802,0.0148031,0.0318597,1.00302e-06,0.92,0.32,0
0.0461517,0.0048415,0.0348893,-0.00103031,0.0101577,-0.000126139,0,0,0.0643021,-0.0290888,0,-0.000655925,0,0,0,0.0348897,-0.00103076,0.0101577,-0.201203,0.0146722,0.0318366,9.9376e-07,0.94,0.32,0
0.0474362,0.00485515,0.0347772,-0.00112684,0.0100951,-8.20087e-05,0,0,0.0641734,-0.0291771,0,-0.000426445,0,0,0,0.0347774,-0.00112703,0.0100951,-0.130869,0.0145818,0.0318141,9.86935e-07,0.96,0.32,0
0.0487186,0.00486325,0.0347101,-0.00118206,0.0100584,-4.03113e-05,0,0,0.0640943,-0.0292252,0,-0.000209619,0,0,0,0.0347101,-0.00118211,0.0100584,-0.0643502,0.0145288,0.0317986,9.8278e-07,0.98,0.32,0
0.05,0.00486593,0.0346877,-0.00120004,0.0100463,2.58209e-05,0,0,0.0640676,-0.0292405,0,0.000134269,0,0,0,0.0346877,-0.00120006,0.0100463,0.0412238,0.0145113,0.0317932,9.81389e-07,1,0.32,0
0,0,0.0298817,0.0128064,0.0128064,0.00237628,0,0,0.0443957,-4.33681e-19,0,0.0123566,0,0,0,0.0302062,0.0124819,0.0128064,7.77674,0.0184982,0.0175643,2.77982e-07,0,0.34,0
0.000887913,0.000247133,0.029773,0.0115777,0.0124052,0.00236779,0,0,0.0451562,-0.00215147,0,0.0123125,0,0,0,0.030076,0.0112746,0.0124052,7.2942,0.0179186,0.0182624,3.08781e-07,0.02,0.34,0
0.00180625,0.000493357,0.0301841,0.0106136,0.0122393,0.00234242,0,0,0.0466564,-0.00422683,0,0.0121806,0,0,0,0.0304605,0.0103371,0.0122393,6.73116,0.017679,0.019243,3.53934e-07,0.04,0.34,0
0.00275417,0.000737168,0.0305886,0.00968669,0.0120826,0.00229623,0,0,0.0481157,-0.00622935,0,0.0119404,0,0,0,0.0308379,0.0094374,0.0120826,6.1959,0.0174526,0.0202082,3.99466e-07,0.06,0.34,0
0.00373087,0.000976901,0.0309872,0.00879846,0.0119357,0.00222818,0,0,0.0495339,-0.00815682,0,0.0115866,0,0,0,0.0312087,0.00857692,0.0119357,5.67808,0.0172405,0.0211534,4.45106e-07,0.08,0.34,0
0.00473552,0.00121082,0.0313797,0.00795207,0.0117995,0.00213855,0,0,0.0509085,-0.0100034,0,0.0111204,0,0,0,0.0315733,0.00775846,0.0117995,5.17316,0.0170438,0.0220735,4.90559e-07,0.1,0.34,0
0.00576721,0.00143721,0.031766,0.00715169,0.0116753,0.0020288,0,0,0.0522359,-0.0117614,0,0.0105498,0,0,0,0.0319321,0.00698559,0.0116753,4.68043,0.0168643,0.0229637,5.35547e-07,0.12,0.34,0
0.00682496,0.00165444,0.0321462,0.00640188,0.0115644,0.0019015,0,0,0.0535125,-0.0134226,0,0.00988778,0,0,0,0.0322858,0.0062622,0.0115644,4.20153,0.0167042,0.0238193,5.79825e-07,0.14,0.34,0
0.00790771,0.00186106,0.0325207,0.0057073,0.0114684,0.00175998,0,0,0.054736,-0.0149789,0,0.00915191,0,0,0,0.0326358,0.00559227,0.0114684,3.7394,0.0165655,0.0246367,6.23215e-07,0.16,0.34,0
0.0090144,0.00205582,0.032891,0.00507249,0.0113891,0.00160812,0,0,0.0559052,-0.0164231,0,0.0083622,0,0,0,0.0329837,0.00497984,0.0113891,3.29747,0.0164509,0.0254128,6.65602e-07,0.18,0.34,0
0.0101439,0.00223771,0.033259,0.00450209,0.0113283,0.00144992,0,0,0.0570198,-0.0177482,0,0.00753957,0,0,0,0.0333319,0.00442917,0.0113283,2.87911,0.0163631,0.026145,7.06934e-07,0.2,0.34,0
0.0112952,0.002406,0.0336269,0.00400117,0.0112884,0.00128926,0,0,0.0580801,-0.0189469,0,0.00670418,0,0,0,0.0336829,0.00394516,0.0112884,2.48715,0.0163055,0.0268307,7.47181e-07,0.22,0.34,0
0.0124671,0.00256015,0.0339969,0.00357596,0.0112719,0.00112954,0,0,0.0590851,-0.0200093,0,0.00587363,0,0,0,0.0340388,0.00353408,0.0112719,2.12352,0.0162816,0.0274658,7.86269e-07,0.24,0.34,0
0.0136586,0.00269985,0.0343698,0.00323505,0.0112815,0.000973259,0,0,0.0600298,-0.0209207,0,0.00506095,0,0,0,0.0344002,0.00320465,0.0112815,1.78871,0.0162955,0.0280435,8.23953e-07,0.26,0.34,0
0.0148683,0.00282487,0.0347438,0.00299104,0.0113204,0.000821484,0,0,0.0609006,-0.0216565,0,0.00427172,0,0,0,0.034765,0.0029698,0.0113204,1.48099,0.0163517,0.028551,8.59588e-07,0.28,0.34,0
0.0160946,0.00293505,0.0351105,0.00286318,0.0113921,0.000673046,0,0,0.0616678,-0.0221752,0,0.00349984,0,0,0,0.0351245,0.00284914,0.0113921,1.19515,0.0164553,0.0289647,8.91748e-07,0.3,0.34,0
0.017335,0.00303006,0.0354508,0.00288109,0.0114996,0.000523445,0,0,0.0622733,-0.0224081,0,0.00272191,0,0,0,0.0354592,0.00287268,0.0114996,0.920512,0.0166105,0.0292436,9.17613e-07,0.32,0.34,0
0.0185856,0.00310928,0.0357291,0.00308951,0.0116456,0.000364191,0,0,0.0626171,-0.0222458,0,0.00189379,0,0,0,0.0357332,0.00308545,0.0116456,0.639197,0.0168214,0.0293203,9.32242e-07,0.34,0.34,0
0.0198397,0.00317175,0.0358969,0.00355358,0.0118352,0.000187582,0,0,0.0625607,-0.0215321,0,0.000975429,0,0,0,0.035898,0.00355249,0.0118352,0.332284,0.0170952,0.0291021,9.2871e-07,0.36,0.34,0
0.021088,0.00321716,0.0359292,0.00434525,0.0120823,6.03831e-07,0,0,0.0620018,-0.0201164,0,3.13992e-06,0,0,0,0.0359292,0.00434525,0.0120823,0.0010954,0.0174523,0.0285139,9.01698e-07,0.38,0.34,0
0.0223198,0.0032474,0.0358422,0.00543343,0.0123827,-0.000153509,0,0,0.0609947,-0.018068,0,-0.000798246,0,0,0,0.0358429,0.00543266,0.0123827,-0.28923,0.0178861,0.0275996,8.53318e-07,0.4,0.34,0
0.0235278,0.00326823,0.0356514,0.0022202,0.0113615,-0.000239488,0,0,0.0466767,-0.0158449,0,-0.000915134,0,0,0,0.0356532,0.00221848,0.0113615,-0.413601,0.016411,0.0299881,9.38223e-07,0.42,0.34,0
0.0241869,0.00329925,0.0356172,-0.000785066,0.0104496,-0.000241457,0,0,0.0327178,-0.0146051,0,-0.000627788,0,0,0,0.0356188,-0.000786668,0.0104496,-0.380022,0.0150939,0.0322885,1.04961e-06,0.44,0.34,0
0.0248365,0.00333147,0.0355976,-6.63944e-05,0.0106593,-0.000216359,0,0,0.0324197,-0.0139435,0,-0.000562533,0,0,0,0.0355989,-6.77069e-05,0.0106593,-0.347574,0.0153968,0.0316951,1.02622e-06,0.46,0.34,0
0.0254836,0.00336527,0.0356741,0.00017345,0.0107543,-0.000204987,0,0,0.0323958,-0.0137551,0,-0.000532966,0,0,0,0.0356753,0.000172266,0.0107543,-0.330821,0.0155339,0.0315713,1.02538e-06,0.48,0.34,0
0.0261323,0.00339918,0.0357949,0.000197874,0.0107978,-0.000227763,0,0,0.0324962,-0.01378,0,-0.000592184,0,0,0,0.0357964,0.000196417,0.0107978,-0.366579,0.0155969,0.0316597,1.03512e-06,0.5,0.34,0
0.0267835,0.00343218,0.035903,0.000185631,0.0108266,-0.000249153,0,0,0.0325993,-0.0138333,0,-0.000647799,0,0,0,0.0359047,0.000183893,0.0108266,-0.399652,0.0156384,0.031766,1.04496e-06,0.52,0.34,0
0.0274363,0.00346413,0.0359624,0.000173524,0.0108408,-0.000252688,0,0,0.0326581,-0.0138674,0,-0.000656989,0,0,0,0.0359642,0.00017174,0.0108408,-0.404511,0.0156589,0.0318286,1.05056e-06,0.54,0.34,0
0.0280898,0.00349562,0.035985,0.000153563,0.0108416,-0.000231825,0,0,0.0326865,-0.0138944,0,-0.000602744,0,0,0,0.0359865,0.000152063,0.0108416,-0.370675,0.01566,0.0318641,1.05314e-06,0.56,0.34,0
0.0287437,0.00352731,0.0359907,9.97442e-05,0.0108271,-0.000190995,0,0,0.0327126,-0.0139456,0,-0.000496587,0,0,0,0.0359917,9.87278e-05,0.0108271,-0.30489,0.0156392,0.0319113,1.05529e-06,0.58,0.34,0
0.0293983,0.00355975,0.0359953,-6.46906e-06,0.0107967,-0.000137939,0,0,0.0327583,-0.0140441,0,-0.000358641,0,0,0,0.0359958,-6.99756e-06,0.0107967,-0.219521,0.0155952,0.0319994,1.059e-06,0.6,0.34,0
0.0300541,0.0035932,0.0360035,-0.000166693,0.010751,-8.17801e-05,0,0,0.0328282,-0.0141931,0,-0.000212628,0,0,0,0.0360037,-0.000166878,0.010751,-0.129544,0.0155293,0.0321341,1.06471e-06,0.62,0.34,0
0.0307114,0.0036277,0.0360102,-0.000365182,0.0106935,-2.93641e-05,0,0,0.0329117,-0.0143763,0,-7.63467e-05,0,0,0,0.0360102,-0.000365206,0.0106935,-0.0462522,0.0154462,0.0322986,1.07145e-06,0.64,0.34,0
0.0313705,0.00366311,0.0360119,-0.000577192,0.0106304,1.76668e-05,0,0,0.0329959,-0.0145699,0,4.59336e-05,0,0,0,0.0360119,-0.0005772,0.0106304,0.0276648,0.015355,0.03247,1.07812e-06,0.66,0.34,0
0.0320313,0.00369948,0.0360296,-0.000791579,0.0105714,7.33344e-05,0,0,0.0330957,-0.0147719,0,0.000190669,0,0,0,0.0360298,-0.000791725,0.0105714,0.114112,0.0152698,0.0326579,1.08623e-06,0.68,0.34,0
0.0326944,0.00373766,0.0361705,-0.00102993,0.0105422,0.00017245,0,0,0.0333169,-0.0150438,0,0.00044837,0,0,0,0.0361713,-0.00103073,0.0105422,0.265598,0.0152276,0.0329756,1.10621e-06,0.7,0.34,0
0.033364,0.00377953,0.0366819,-0.0013941,0.0105863,0.000405226,0,0,0.0339242,-0.0155745,0,0.00105359,0,0,0,0.0366862,-0.00139841,0.0105863,0.609683,0.0152914,0.0337288,1.16488e-06,0.72,0.34,0
0.0340513,0.00382842,0.0375248,-0.00209148,0.01063,0.000555243,0,0,0.0349633,-0.0165379,0,0.00144363,0,0,0,0.0375326,-0.00209926,0.01063,0.802819,0.0153545,0.0350462,1.26801e-06,0.74,0.34,0
0.0347625,0.00384848,0.0334316,0.00105703,0.0103466,0.0011899,0,0,0.0409053,-0.0162066,0,0.00501262,0,0,0,0.0334883,0.00100029,0.0103466,2.44098,0.0149451,0.0289698,1.00551e-06,0.76,0.34,0
0.0356341,0.00391164,0.0411627,0.00259566,0.0131275,-6.39019e-05,0,0,0.0511021,-0.0184343,0,-0.00128496,0,0,0,0.0411808,0.00257758,0.0131275,-0.381391,0.018962,0.0345681,1.63517e-06,0.78,0.34,0
0.036957,0.00402415,0.0376149,0.00286953,0.0121453,-3.27352e-05,0,0,0.0662208,-0.0241171,0,-0.000170223,0,0,0,0.0376149,0.0028695,0.0121453,-0.0539809,0.0175432,0.0311607,1.10233e-06,0.8,0.34,0
0.0382829,0.00407504,0.0369883,0.00151352,0.0115505,-7.61954e-05,0,0,0.0661381,-0.0260963,0,-0.000396216,0,0,0,0.0369885,0.00151336,0.0115505,-0.123063,0.0166841,0.0316727,1.09642e-06,0.82,0.34,0
0.0396026,0.00412063,0.036456,0.000598682,0.0111164,-1.68035e-05,0,0,0.0658829,-0.027346,0,-8.73781e-05,0,0,0,0.036456,0.000598675,0.0111164,-0.02685,0.016057,0.0319254,1.08022e-06,0.84,0.34,0
0.0409182,0.00415902,0.0360776,9.20079e-07,0.0108235,-1.85507e-06,0,0,0.0656605,-0.0281388,0,-9.64635e-06,0,0,0,0.0360776,9.19984e-07,0.0108235,-0.00294616,0.015634,0.0320657,1.06598e-06,0.86,0.34,0
0.042229,0.00419131,0.0357595,-0.000411686,0.0106044,6.34657e-06,0,0,0.0654035,-0.0286417,0,3.30021e-05,0,0,0,0.0357595,-0.000411687,0.0106044,0.0100531,0.0153174,0.032113,1.05073e-06,0.88,0.34,0
0.0435344,0.00421813,0.0354892,-0.000702244,0.0104361,1.16627e-05,0,0,0.0651381,-0.0289596,0,6.0646e-05,0,0,0,0.0354892,-0.000702248,0.0104361,0.0184636,0.0150743,0.0321056,1.03579e-06,0.9,0.34,0
0.0448345,0.00423989,0.0352668,-0.000907704,0.0103077,1.4312e-05,0,0,0.0648936,-0.0291601,0,7.44224e-05,0,0,0,0.0352668,-0.00090771,0.0103077,0.0226684,0.0148889,0.0320729,1.0225e-06,0.92,0.34,0
0.0461301,0.00425677,0.0350939,-0.0010505,0.010213,1.40261e-05,0,0,0.0646902,-0.0292851,0,7.29359e-05,0,0,0,0.0350939,-0.00105051,0.010213,0.0222341,0.0147521,0.0320339,1.01169e-06,0.94,0.34,0
0.0474221,0.00426882,0.0349707,-0.00114449,0.0101479,1.10474e-05,0,0,0.0645394,-0.0293601,0,5.74464e-05,0,0,0,0.0349707,-0.00114449,0.0101479,0.0175264,0.014658,0.032,1.0038e-06,0.96,0.34,0
0.0487117,0.00427607,0.0348971,-0.00119795,0.0101098,6.05641e-06,0,0,0.0644472,-0.0294,0,3.14933e-05,0,0,0,0.0348971,-0.00119795,0.0101098,0.00961368,0.014603,0.0319776,9.99014e-07,0.98,0.34,0
0.05,0.00427848,0.0348727,-0.00121531,0.0100972,2.32323e-05,0,0,0.0644162,-0.0294125,0,0.000120808,0,0,0,0.0348727,-0.00121532,0.0100972,0.0368852,0.0145849,0.0319698,9.97414e-07,1,0.34,0
0,0,0.0298548,0.0127949,0.0127949,0.00196609,0,0,0.0443557,4.33681e-19,0,0.0102236,0,0,0,0.0300785,0.0125713,0.0127949,6.48977,0.0184815,0.0173964,2.7025e-07,0,0.36,0
0.000887114,0.000204473,0.0297478,0.0115892,0.0124011,0.00195784,0,0,0.0451015,-0.00211104,0,0.0101808,0,0,0,0.0299565,0.0113805,0.0124011,6.08438,0.0179127,0.0180874,3.00651e-07,0.02,0.36,0
0.00180406,0.000409612,0.0301514,0.0106461,0.0122392,0.00193901,0,0,0.0465717,-0.00414228,0,0.0100829,0,0,0,0.0303423,0.0104552,0.0122392,5.62241,0.0176789,0.0190578,3.4502e-07,0.04,0.36,0
0.00274998,0.000613822,0.0305488,0.00974131,0.012087,0.00189834,0,0,0.0480005,-0.00609884,0,0.00987139,0,0,0,0.0307205,0.00956954,0.012087,5.17043,0.017459,0.0200114,3.89707e-07,0.06,0.36,0
0.00372408,0.000815456,0.0309409,0.00887535,0.0119449,0.00183567,0,0,0.0493896,-0.00798076,0,0.00954548,0,0,0,0.0310926,0.00872368,0.0119449,4.72326,0.0172537,0.0209449,4.34519e-07,0.08,0.36,0
0.00472557,0.00101286,0.0313282,0.00805024,0.0118135,0.00175158,0,0,0.0507382,-0.00978457,0,0.00910824,0,0,0,0.0314593,0.00791918,0.0118135,4.27919,0.017064,0.0218547,4.79239e-07,0.1,0.36,0
0.00575361,0.00120446,0.031711,0.00726914,0.011694,0.00164749,0,0,0.0520441,-0.0115048,0,0.00856693,0,0,0,0.0318216,0.00715859,0.011694,3.83884,0.0168914,0.0227371,5.23654e-07,0.12,0.36,0
0.00680733,0.00138875,0.0320896,0.00653579,0.0115876,0.00152551,0,0,0.0533052,-0.0131348,0,0.00793264,0,0,0,0.0321804,0.00644504,0.0115876,3.40432,0.0167377,0.0235883,5.67572e-07,0.14,0.36,0
0.00788582,0.00156443,0.0324648,0.00585424,0.0114957,0.00138838,0,0,0.0545197,-0.0146679,0,0.00721959,0,0,0,0.0325371,0.00578199,0.0114957,2.97857,0.0166049,0.0244051,6.10847e-07,0.16,0.36,0
0.00898812,0.0017304,0.0328379,0.00522872,0.01142,0.00123928,0,0,0.0556866,-0.0160973,0,0.00644425,0,0,0,0.0328934,0.0051732,0.01142,2.56493,0.0164955,0.0251847,6.53381e-07,0.18,0.36,0
0.0101133,0.00188579,0.0332107,0.00466376,0.0113623,0.00108164,0,0,0.0568057,-0.0174163,0,0.00562454,0,0,0,0.0332516,0.00462283,0.0113623,2.16679,0.0164123,0.0259246,6.95124e-07,0.2,0.36,0
0.0112603,0.00203002,0.0335852,0.00416455,0.0113249,0.000919077,0,0,0.0578767,-0.018617,0,0.0047792,0,0,0,0.0336139,0.00413586,0.0113249,1.78755,0.0163582,0.0266217,7.36034e-07,0.22,0.36,0
0.0124283,0.00216276,0.0339633,0.0037376,0.0113103,0.000755325,0,0,0.0588978,-0.0196889,0,0.00392769,0,0,0,0.0339821,0.00371873,0.0113103,1.4306,0.016337,0.0272719,7.76022e-07,0.24,0.36,0
0.0136163,0.00228401,0.0343455,0.00339186,0.0113212,0.000594381,0,0,0.0598632,-0.0206163,0,0.00309078,0,0,0,0.0343569,0.00338045,0.0113212,1.09967,0.0163529,0.0278679,8.14819e-07,0.26,0.36,0
0.0148229,0.00239411,0.0347295,0.00314042,0.011361,0.000440829,0,0,0.0607582,-0.0213735,0,0.00229231,0,0,0,0.0347357,0.00313427,0.011361,0.799361,0.0164103,0.0283963,8.51755e-07,0.28,0.36,0
0.0160466,0.00249377,0.0351068,0.00300306,0.0114329,0.000300492,0,0,0.0615519,-0.0219177,0,0.00156256,0,0,0,0.0351096,0.00300025,0.0114329,0.536228,0.0165143,0.0288332,8.85367e-07,0.3,0.36,0
0.017285,0.00258415,0.0354576,0.00300997,0.0115403,0.000181385,0,0,0.0621851,-0.0221788,0,0.0009432,0,0,0,0.0354586,0.00300895,0.0115403,0.320274,0.0166693,0.0291363,9.12779e-07,0.32,0.36,0
0.018534,0.00266698,0.0357458,0.00320655,0.0116857,9.42943e-05,0,0,0.0625562,-0.0220458,0,0.00049033,0,0,0,0.0357461,0.00320628,0.0116857,0.166033,0.0168793,0.0292373,9.28954e-07,0.34,0.36,0
0.0197872,0.00274451,0.0359228,0.00365855,0.0118744,4.82338e-05,0,0,0.0625258,-0.0213612,0,0.000250816,0,0,0,0.0359229,0.00365848,0.0118744,0.0856547,0.0171519,0.0290415,9.26826e-07,0.36,0.36,0
0.021035,0.00281852,0.0359637,0.00443775,0.0121204,3.76188e-05,0,0,0.0619926,-0.019975,0,0.000195618,0,0,0,0.0359638,0.00443771,0.0121204,0.0683688,0.0175073,0.028473,9.00964e-07,0.38,0.36,0
0.0222669,0.00288882,0.0358855,0.00551084,0.0124189,2.29199e-05,0,0,0.0610132,-0.017961,0,0.000119183,0,0,0,0.0358855,0.00551083,0.0124189,0.0432338,0.0179384,0.0275774,8.53577e-07,0.4,0.36,0
0.0234756,0.00295189,0.0357042,0.00229407,0.0113995,-3.78567e-05,0,0,0.0467042,-0.0157827,0,-6.25217e-05,0,0,0,0.0357043,0.00229391,0.0113995,-0.0519332,0.0164659,0.0299738,9.40154e-07,0.42,0.36,0
0.0241351,0.00300672,0.035679,-0.000721081,0.0104874,-0.000175647,0,0,0.0327491,-0.014571,0,-0.000456681,0,0,0,0.0356799,-0.000721929,0.0104874,-0.276469,0.0151484,0.0322909,1.05306e-06,0.44,0.36,0
0.0247855,0.00305238,0.0356679,-2.93848e-05,0.0106916,-0.000303401,0,0,0.0324693,-0.0139372,0,-0.000788842,0,0,0,0.0356705,-3.19633e-05,0.0106916,-0.486925,0.0154434,0.0317302,1.03132e-06,0.46,0.36,0
0.0254338,0.0030904,0.0357517,0.000188332,0.010782,-0.00036937,0,0,0.0324606,-0.0137718,0,-0.000960363,0,0,0,0.0357555,0.000184496,0.010782,-0.595004,0.015574,0.0316329,1.03194e-06,0.48,0.36,0
0.0260839,0.00312398,0.0358775,0.000195267,0.0108218,-0.000360969,0,0,0.0325723,-0.0138145,0,-0.00093852,0,0,0,0.0358811,0.000191616,0.0108218,-0.579538,0.0156315,0.0317389,1.04265e-06,0.5,0.36,0
0.0267367,0.00315559,0.0359889,0.000169004,0.0108474,-0.00032174,0,0,0.032684,-0.0138819,0,-0.000836524,0,0,0,0.0359918,0.000166114,0.0108474,-0.514585,0.0156684,0.0318575,1.05316e-06,0.52,0.36,0
0.0273913,0.00318653,0.0360504,0.00014528,0.0108587,-0.000274252,0,0,0.0327492,-0.0139275,0,-0.000713054,0,0,0,0.0360525,0.000143185,0.0108587,-0.437604,0.0156848,0.0319299,1.05924e-06,0.54,0.36,0
0.0280467,0.00321717,0.0360745,0.00011591,0.0108571,-0.000229984,0,0,0.0327826,-0.0139636,0,-0.000597958,0,0,0,0.036076,0.000114439,0.0108571,-0.366432,0.0156825,0.0319737,1.06223e-06,0.56,0.36,0
0.0287026,0.00324764,0.0360812,5.45523e-05,0.0108407,-0.000188635,0,0,0.0328126,-0.014022,0,-0.00049045,0,0,0,0.0360822,5.35646e-05,0.0108407,-0.299989,0.0156588,0.0320278,1.06472e-06,0.58,0.36,0
0.0293592,0.00327802,0.0360863,-5.73351e-05,0.0108087,-0.000146314,0,0,0.0328609,-0.0141258,0,-0.000380415,0,0,0,0.0360869,-5.79274e-05,0.0108087,-0.231935,0.0156126,0.032121,1.06867e-06,0.6,0.36,0
0.030017,0.00330853,0.0360945,-0.000221266,0.010762,-9.7791e-05,0,0,0.0329323,-0.0142782,0,-0.000254257,0,0,0,0.0360947,-0.00022153,0.010762,-0.154284,0.0155451,0.0322588,1.07451e-06,0.62,0.36,0
0.0306765,0.00333947,0.0361004,-0.000421277,0.0107037,-4.04926e-05,0,0,0.0330157,-0.0144625,0,-0.000105281,0,0,0,0.0361005,-0.000421322,0.0107037,-0.0635253,0.015461,0.0324238,1.08125e-06,0.64,0.36,0
0.0313377,0.00337108,0.0361005,-0.000632225,0.0106405,2.23421e-05,0,0,0.033098,-0.0146545,0,5.80893e-05,0,0,0,0.0361005,-0.000632238,0.0106405,0.0348492,0.0153696,0.0325928,1.08774e-06,0.66,0.36,0
0.0320004,0.00340329,0.0361145,-0.00084287,0.0105815,7.0941e-05,0,0,0.0331929,-0.0148517,0,0.000184447,0,0,0,0.0361147,-0.000843006,0.0105815,0.109981,0.0152844,0.0327745,1.09543e-06,0.68,0.36,0
0.0326654,0.00343493,0.0362482,-0.00107428,0.0105522,6.41129e-05,0,0,0.0334049,-0.0151144,0,0.000166694,0,0,0,0.0362483,-0.00107439,0.0105522,0.0984228,0.015242,0.0330791,1.11454e-06,0.7,0.36,0
0.0333366,0.00346362,0.0367393,-0.00143259,0.010592,-9.47863e-05,0,0,0.0339915,-0.015632,0,-0.000246444,0,0,0,0.0367396,-0.00143283,0.010592,-0.142272,0.0152996,0.033804,1.17095e-06,0.72,0.36,0
0.034025,0.00348539,0.0375362,-0.00213008,0.0106218,-0.000180837,0,0,0.0349887,-0.0165775,0,-0.000470176,0,0,0,0.037537,-0.0021309,0.0106218,-0.261202,0.0153426,0.0350756,1.2694e-06,0.74,0.36,0
0.0347362,0.00353691,0.0334252,0.000975828,0.0103203,-0.000795017,0,0,0.040947,-0.0163208,0,-0.00355919,0,0,0,0.0334559,0.000945165,0.0103203,-1.71622,0.0149071,0.0289846,1.00498e-06,0.76,0.36,0
0.035609,0.0035537,0.0412722,0.00265177,0.0131772,0.000540404,0,0,0.0512258,-0.0184176,0,0.00301662,0,0,0,0.0412981,0.00262585,0.0131772,1.0888,0.0190337,0.0346344,1.64453e-06,0.78,0.36,0
0.0369369,0.00352491,0.0377367,0.00288881,0.0121876,0.000420208,0,0,0.0664274,-0.024177,0,0.00218508,0,0,0,0.0377417,0.00288374,0.0121876,0.690759,0.0176044,0.0312622,1.11333e-06,0.8,0.36,0
0.0382661,0.00354875,0.0370756,0.00152347,0.0115797,0.000444061,0,0,0.0662893,-0.0261463,0,0.00230912,0,0,0,0.0370812,0.00151793,0.0115797,0.715499,0.0167263,0.0317514,1.10465e-06,0.82,0.36,0
0.0395884,0.00357133,0.0365286,0.000607301,0.0111408,0.000371054,0,0,0.0660083,-0.027387,0,0.00192948,0,0,0,0.0365324,0.000603469,0.0111408,0.591762,0.0160922,0.0319895,1.08691e-06,0.84,0.36,0
0.0409064,0.00359456,0.0361441,1.31153e-05,0.0108472,0.000336286,0,0,0.0657721,-0.0281685,0,0.00174869,0,0,0,0.0361472,9.98558e-06,0.0108472,0.533214,0.0156681,0.0321204,1.07188e-06,0.86,0.36,0
0.0422193,0.00361705,0.0358217,-0.000395247,0.0106279,0.000300174,0,0,0.0655038,-0.0286603,0,0.0015609,0,0,0,0.0358242,-0.000397735,0.0106279,0.474836,0.0153515,0.0321594,1.05599e-06,0.88,0.36,0
0.0435266,0.00363769,0.0355481,-0.000681687,0.0104599,0.000258515,0,0,0.0652292,-0.0289682,0,0.00134428,0,0,0,0.0355499,-0.000683531,0.0104599,0.408802,0.0151088,0.0321446,1.04053e-06,0.9,0.36,0
0.0448285,0.00365559,0.0353232,-0.000883556,0.0103319,0.00021178,0,0,0.0649774,-0.0291602,0,0.00110126,0,0,0,0.0353245,-0.000884795,0.0103319,0.335118,0.0149239,0.0321057,1.02682e-06,0.92,0.36,0
0.0461257,0.00367009,0.0351485,-0.00102347,0.0102375,0.000161451,0,0,0.0647685,-0.0292785,0,0.000839547,0,0,0,0.0351492,-0.00102419,0.0102375,0.25573,0.0147875,0.0320619,1.01569e-06,0.94,0.36,0
0.0474192,0.00368074,0.0350241,-0.00111535,0.0101726,0.00010878,0,0,0.0646139,-0.0293487,0,0.000565657,0,0,0,0.0350244,-0.00111568,0.0101726,0.172459,0.0146938,0.0320246,1.00758e-06,0.96,0.36,0
0.0487102,0.00368724,0.0349498,-0.00116754,0.0101347,5.47148e-05,0,0,0.0645193,-0.0293858,0,0.000284517,0,0,0,0.0349499,-0.00116763,0.0101347,0.0867982,0.014639,0.0320001,1.00266e-06,0.98,0.36,0
0.05,0.00368943,0.0349251,-0.00118448,0.0101222,2.10129e-05,0,0,0.0644876,-0.0293973,0,0.000109267,0,0,0,0.0349251,-0.00118449,0.0101222,0.0333415,0.0146209,0.0319916,1.00102e-06,1,0.36,0
0,0,0.0298015,0.0127721,0.0127721,0.00156434,0,0,0.0442766,3.25261e-19,0,0.00813456,0,0,0,0.029944,0.0126296,0.0127721,5.20519,0.0184486,0.0172437,2.63278e-07,0,0.38,0
0.000885532,0.000162691,0.0296968,0.0115934,0.0123871,0.00155631,0,0,0.0450053,-0.00206351,0,0.00809282,0,0,0,0.0298296,0.0114606,0.0123871,4.87791,0.0178924,0.0179238,2.93077e-07,0.02,0.38,0
0.00180021,0.000327666,0.0300912,0.0106729,0.0122292,0.00154403,0,0,0.0464412,-0.00404654,0,0.00802895,0,0,0,0.0302133,0.0105509,0.0122292,4.51797,0.0176645,0.0188792,3.36409e-07,0.04,0.38,0
0.00274318,0.000493214,0.0304796,0.00979077,0.0120811,0.00150856,0,0,0.047836,-0.00595484,0,0.00784451,0,0,0,0.030589,0.00968135,0.0120811,4.14858,0.0174505,0.019817,3.80015e-07,0.06,0.38,0
0.00371365,0.000657671,0.0308629,0.00894699,0.011943,0.00145053,0,0,0.0491919,-0.00778955,0,0.00754278,0,0,0,0.0309585,0.0088514,0.011943,3.77028,0.017251,0.0207349,4.23746e-07,0.08,0.38,0
0.00471085,0.00081944,0.031242,0.00814297,0.0118155,0.00137092,0,0,0.0505089,-0.00954853,0,0.0071288,0,0,0,0.031323,0.00806189,0.0118155,3.38466,0.0170668,0.02163,4.67426e-07,0.1,0.38,0
0.00573401,0.000977022,0.0316171,0.0073812,0.0116995,0.00127113,0,0,0.0517858,-0.0112276,0,0.00660985,0,0,0,0.0316836,0.00731472,0.0116995,2.9941,0.0168993,0.0224992,5.10878e-07,0.12,0.38,0
0.00678229,0.00112905,0.0319888,0.00666486,0.0115961,0.00115299,0,0,0.053021,-0.0128212,0,0.00599553,0,0,0,0.0320412,0.00661248,0.0115961,2.60147,0.0167499,0.0233394,5.53937e-07,0.14,0.38,0
0.00785485,0.00127435,0.0323578,0.00599755,0.0115066,0.00101876,0,0,0.0542131,-0.0143235,0,0.00529756,0,0,0,0.0323971,0.00595824,0.0115066,2.20996,0.0166206,0.0241476,5.9647e-07,0.16,0.38,0
0.00895081,0.00141193,0.0327253,0.00538318,0.0114325,0.000871066,0,0,0.0553611,-0.0157283,0,0.00452954,0,0,0,0.032753,0.00535546,0.0114325,1.82287,0.0165137,0.024921,6.38384e-07,0.18,0.38,0
0.0100693,0.00154106,0.0330929,0.00482605,0.0113757,0.000712836,0,0,0.0564647,-0.017029,0,0.00370674,0,0,0,0.0331108,0.00480808,0.0113757,1.44367,0.0164315,0.0256573,6.79622e-07,0.2,0.38,0
0.0112094,0.00166132,0.0334626,0.00433114,0.0113381,0.0005474,0,0,0.0575236,-0.0182182,0,0.00284648,0,0,0,0.0334729,0.00432086,0.0113381,1.07612,0.0163773,0.0263537,7.20147e-07,0.22,0.38,0
0.0123702,0.00177259,0.0338365,0.00390463,0.0113223,0.000378706,0,0,0.0585368,-0.019286,0,0.00196927,0,0,0,0.0338413,0.00389984,0.0113223,0.724767,0.0163545,0.0270063,7.59896e-07,0.24,0.38,0
0.0135509,0.00187519,0.034216,0.00355479,0.0113312,0.00021185,0,0,0.0595004,-0.0202188,0,0.00110162,0,0,0,0.0342175,0.00355333,0.0113312,0.395853,0.0163674,0.0276095,7.98696e-07,0.26,0.38,0
0.0147503,0.00196994,0.0346012,0.00329333,0.0113684,5.41094e-05,0,0,0.0604054,-0.0209951,0,0.000281369,0,0,0,0.0346013,0.00329324,0.0113684,0.0990238,0.016421,0.0281529,8.36116e-07,0.28,0.38,0
0.0159671,0.00205834,0.0349887,0.00313736,0.0114378,-8.32445e-05,0,0,0.0612322,-0.0215812,0,-0.000432871,0,0,0,0.0349889,0.00313714,0.0114378,-0.149743,0.0165213,0.0286189,8.71206e-07,0.3,0.38,0
0.0171995,0.00214291,0.0353684,0.00311223,0.0115442,-0.000182197,0,0,0.0619429,-0.0219231,0,-0.000947425,0,0,0,0.0353694,0.0031112,0.0115442,-0.323618,0.0166749,0.0289771,9.02055e-07,0.32,0.38,0
0.0184448,0.00222745,0.0357176,0.00325548,0.0116919,-0.000215268,0,0,0.0624667,-0.0219347,0,-0.0011194,0,0,0,0.035719,0.00325405,0.0116919,-0.379928,0.0168883,0.0291759,9.2504e-07,0.34,0.38,0
0.0196982,0.0023173,0.0359837,0.00361916,0.0118809,-0.000149365,0,0,0.0626674,-0.0214804,0,-0.000776699,0,0,0,0.0359844,0.00361848,0.0118809,-0.264418,0.0171612,0.0291273,9.33307e-07,0.36,0.38,0
0.0209515,0.00241816,0.0360834,0.00429189,0.0121126,1.63621e-05,0,0,0.0623241,-0.0203338,0,8.50827e-05,0,0,0,0.0360834,0.00429188,0.0121126,0.0294883,0.017496,0.028692,9.16097e-07,0.38,0.38,0
0.0221912,0.00252896,0.0360631,0.00543392,0.0124491,0.000188066,0,0,0.0613964,-0.0182395,0,0.000977946,0,0,0,0.0360643,0.00543277,0.0124491,0.351784,0.0179821,0.0277956,8.70536e-07,0.4,0.38,0
0.0234074,0.00263692,0.0358925,0.00241353,0.0114918,0.000146749,0,0,0.0469231,-0.0157357,0,0.000746011,0,0,0,0.0358938,0.0024122,0.0114918,0.282812,0.0165993,0.0300496,9.51158e-07,0.42,0.38,0
0.0240681,0.00271641,0.0359267,-0.000395092,0.0106595,-0.00011184,0,0,0.0328474,-0.014371,0,-0.000290785,0,0,0,0.0359271,-0.000395437,0.0106595,-0.17642,0.015397,0.0322489,1.06501e-06,0.44,0.38,0
0.0247213,0.00277398,0.0359249,0.000137654,0.0108188,-0.000436509,0,0,0.032638,-0.0138855,0,-0.00113492,0,0,0,0.0359302,0.000132331,0.0108188,-0.698717,0.0156271,0.0318298,1.04883e-06,0.46,0.38,0
0.0253736,0.0028144,0.0360033,0.000140734,0.0108432,-0.000524864,0,0,0.0327081,-0.0139132,0,-0.00136465,0,0,0,0.036011,0.000133054,0.0108432,-0.838309,0.0156624,0.031901,1.0559e-06,0.48,0.38,0
0.0260296,0.0028466,0.0361473,0.000121763,0.0108807,-0.000473511,0,0,0.0328466,-0.0139867,0,-0.00123113,0,0,0,0.0361536,0.00011554,0.0108807,-0.752907,0.0157166,0.0320417,1.06907e-06,0.5,0.38,0
0.0266875,0.00287691,0.0362099,9.20315e-05,0.0108906,-0.000367973,0,0,0.0329151,-0.0140381,0,-0.00095673,0,0,0,0.0362136,8.82829e-05,0.0108906,-0.583655,0.0157308,0.0321169,1.07529e-06,0.52,0.38,0
0.0273462,0.00290703,0.0362278,8.9205e-05,0.0108951,-0.000277179,0,0,0.0329325,-0.0140477,0,-0.000720667,0,0,0,0.0362299,8.70792e-05,0.0108951,-0.439419,0.0157374,0.0321323,1.07678e-06,0.54,0.38,0
0.0280048,0.00293708,0.0362173,7.83873e-05,0.0108887,-0.000216149,0,0,0.0329272,-0.0140534,0,-0.000561987,0,0,0,0.0362186,7.70946e-05,0.0108887,-0.342673,0.0157281,0.0321302,1.07609e-06,0.56,0.38,0
0.0286633,0.00296643,0.0362048,2.7382e-05,0.0108697,-0.000181155,0,0,0.0329357,-0.014095,0,-0.000471002,0,0,0,0.0362057,2.64749e-05,0.0108697,-0.286893,0.0157006,0.0321592,1.07656e-06,0.58,0.38,0
0.0293222,0.00299471,0.036204,-8.73526e-05,0.010835,-0.000155206,0,0,0.0329797,-0.0141991,0,-0.000403536,0,0,0,0.0362047,-8.80164e-05,0.010835,-0.245029,0.0156506,0.0322498,1.08012e-06,0.6,0.38,0
0.0299825,0.00302208,0.0362173,-0.00026698,0.0107851,-0.000119293,0,0,0.0330618,-0.0143677,0,-0.000310163,0,0,0,0.0362176,-0.00026737,0.0107851,-0.187339,0.0155785,0.0324047,1.08695e-06,0.62,0.38,0
0.0306447,0.00304919,0.0362344,-0.00048993,0.0107234,-5.86296e-05,0,0,0.0331644,-0.0145773,0,-0.000152437,0,0,0,0.0362345,-0.000490023,0.0107234,-0.0914712,0.0154893,0.0325979,1.09543e-06,0.64,0.38,0
0.031309,0.00307693,0.0362314,-0.000724385,0.0106521,2.49705e-05,0,0,0.0332531,-0.0147894,0,6.49232e-05,0,0,0,0.0362314,-0.000724402,0.0106521,0.0387139,0.0153864,0.0327831,1.10238e-06,0.66,0.38,0
0.0319748,0.00310541,0.0361835,-0.00093544,0.0105744,0.000104614,0,0,0.0332918,-0.0149628,0,0.000271996,0,0,0,0.0361838,-0.000935735,0.0105744,0.161478,0.0152741,0.0329103,1.10448e-06,0.68,0.38,0
0.0326407,0.00313308,0.0360097,-0.0011593,0.0104551,9.15904e-05,0,0,0.0332209,-0.0150987,0,0.000238135,0,0,0,0.0360099,-0.00115953,0.0104551,0.141185,0.0151018,0.0329356,1.09541e-06,0.7,0.38,0
0.0333036,0.00315425,0.0355962,-0.00146337,0.0102398,-0.000103638,0,0,0.0329632,-0.0152142,0,-0.000269459,0,0,0,0.0355965,-0.00146366,0.0102398,-0.160228,0.0147909,0.032813,1.06715e-06,0.72,0.38,0
0.0339592,0.00316532,0.0346499,-0.00224988,0.00972002,-0.000267979,0,0,0.0324089,-0.0155609,0,-0.000696744,0,0,0,0.0346519,-0.00225182,0.00972002,-0.416072,0.01404,0.0326099,1.00585e-06,0.74,0.38,0
0.0346,0.00320307,0.0347039,0.000307241,0.0105033,-0.000597392,0,0,0.0469023,-0.0176732,0,-0.00270673,0,0,0,0.034718,0.000293131,0.0105033,-1.06136,0.0151715,0.0307033,9.05857e-07,0.76,0.38,0
0.0358353,0.00316453,0.0352069,0.00364292,0.0116549,0.000559571,0,0,0.061235,-0.0208312,0,0.00290977,0,0,0,0.0352168,0.00363301,0.0116549,1.01532,0.0168349,0.0284345,8.71591e-07,0.78,0.38,0
0.0370494,0.00305707,0.0352577,0.00234728,0.0112815,0.000396327,0,0,0.0623381,-0.0232289,0,0.0020609,0,0,0,0.0352625,0.00234251,0.0112815,0.689857,0.0162955,0.0294849,9.20043e-07,0.8,0.38,0
0.0383288,0.00302919,0.0360512,0.00128192,0.0111999,0.000668293,0,0,0.0646133,-0.0257869,0,0.00347512,0,0,0,0.0360641,0.00126907,0.0111999,1.10073,0.0161777,0.0310446,1.02326e-06,0.82,0.38,0
0.0396339,0.00302515,0.0361485,0.000577402,0.0110178,0.000685581,0,0,0.0653398,-0.0271449,0,0.00356502,0,0,0,0.0361617,0.000564193,0.0110178,1.10375,0.0159145,0.0316913,1.05524e-06,0.84,0.38,0
0.0409424,0.00303228,0.0359293,4.17958e-05,0.0107913,0.000647584,0,0,0.0653588,-0.0279488,0,0.00336744,0,0,0,0.035941,3.01141e-05,0.0107913,1.03344,0.0155875,0.031921,1.053e-06,0.86,0.38,0
0.0422483,0.0030449,0.035666,-0.000341406,0.0105974,0.000580949,0,0,0.0651785,-0.0284409,0,0.00302093,0,0,0,0.0356754,-0.000350777,0.0105974,0.924097,0.0153073,0.0319895,1.04151e-06,0.88,0.38,0
0.0435496,0.00305941,0.035421,-0.000616051,0.0104415,0.000496804,0,0,0.0649468,-0.0287496,0,0.00258338,0,0,0,0.0354279,-0.000622899,0.0104415,0.789675,0.0150822,0.0319875,1.02814e-06,0.9,0.38,0
0.0448462,0.00307348,0.0352145,-0.000811894,0.0103208,0.000403011,0,0,0.0647237,-0.028945,0,0.00209566,0,0,0,0.035219,-0.000816402,0.0103208,0.640835,0.0149078,0.0319571,1.01577e-06,0.92,0.38,0
0.0461385,0.00308563,0.0350527,-0.000948689,0.0102312,0.000304384,0,0,0.0645359,-0.0290677,0,0.0015828,0,0,0,0.0350553,-0.000951263,0.0102312,0.484377,0.0147784,0.0319198,1.0056e-06,0.94,0.38,0
0.0474276,0.00309487,0.0349371,-0.00103899,0.0101694,0.000203581,0,0,0.064396,-0.0291419,0,0.00105862,0,0,0,0.0349383,-0.00104014,0.0101694,0.324211,0.0146892,0.0318873,9.98138e-07,0.96,0.38,0
0.0487144,0.00310063,0.034868,-0.00109045,0.0101333,0.000101924,0,0,0.0643103,-0.0291817,0,0.000530007,0,0,0,0.0348683,-0.00109073,0.0101333,0.162403,0.0146369,0.0318657,9.9361e-07,0.98,0.38,0
0.05,0.00310259,0.034845,-0.00110717,0.0101214,1.87902e-05,0,0,0.0642815,-0.0291941,0,9.77091e-05,0,0,0,0.034845,-0.00110718,0.0101214,0.0299453,0.0146197,0.0318583,9.92095e-07,1,0.38,0
0,0,0.0297218,0.0127379,0.0127379,0.00117243,0,0,0.0441581,-8.67362e-19,0,0.00609663,0,0,0,0.0298023,0.0126573,0.0127379,3.93039,0.0183992,0.0171048,2.5701e-07,0,0.4,0
0.000883161,0.000121933,0.0296197,0.0115903,0.012363,0.00116468,0,0,0.0448674,-0.00200895,0,0.00605632,0,0,0,0.0296946,0.0115154,0.012363,3.68086,0.0178577,0.0177706,2.86013e-07,0.02,0.4,0
0.00179469,0.000247751,0.0300034,0.0106941,0.0122093,0.00115897,0,0,0.0462649,-0.00393944,0,0.00602663,0,0,0,0.0300727,0.0106248,0.0122093,3.42257,0.0176356,0.0187061,3.28062e-07,0.04,0.4,0
0.00273376,0.000375629,0.030381,0.00983537,0.0120649,0.00112869,0,0,0.0476218,-0.00579677,0,0.0058692,0,0,0,0.0304428,0.00977355,0.0120649,3.13503,0.0174271,0.0196241,3.70365e-07,0.06,0.4,0
0.00369957,0.000503874,0.0307534,0.00901397,0.0119302,0.00107522,0,0,0.0489403,-0.00758222,0,0.00559113,0,0,0,0.0308065,0.00896092,0.0119302,2.82462,0.0172325,0.0205226,4.12782e-07,0.08,0.4,0
0.00469137,0.000630923,0.0311213,0.00823105,0.0118057,0.00099988,0,0,0.0502206,-0.0092941,0,0.00519938,0,0,0,0.0311649,0.00818746,0.0118057,2.49643,0.0170527,0.021399,4.55149e-07,0.1,0.4,0
0.00570839,0.000755353,0.031485,0.00748878,0.0116921,0.000904142,0,0,0.0514615,-0.0109287,0,0.00470154,0,0,0,0.031519,0.00745476,0.0116921,2.15475,0.0168886,0.0222503,4.97298e-07,0.12,0.4,0
0.00674983,0.000875901,0.0318449,0.00678999,0.0115905,0.000789661,0,0,0.0526614,-0.0124812,0,0.00410624,0,0,0,0.0318697,0.00676512,0.0115905,1.80342,0.0167418,0.0230735,5.39066e-07,0.14,0.4,0
0.00781485,0.000991492,0.0322014,0.00613796,0.0115018,0.000658322,0,0,0.0538189,-0.013946,0,0.00342327,0,0,0,0.032218,0.00612134,0.0115018,1.44597,0.0166137,0.0238657,5.80311e-07,0.16,0.4,0
0.00890258,0.00110127,0.0325555,0.00553633,0.0114276,0.000512261,0,0,0.0549327,-0.0153172,0,0.00266376,0,0,0,0.0325652,0.00552662,0.0114276,1.08576,0.0165065,0.0246243,6.20925e-07,0.18,0.4,0
0.0100122,0.00120463,0.0329087,0.00498912,0.0113693,0.000353927,0,0,0.0560022,-0.0165886,0,0.00184042,0,0,0,0.0329131,0.00498464,0.0113693,0.726165,0.0164224,0.0253466,6.60835e-07,0.2,0.4,0
0.0111427,0.00130129,0.0332626,0.00450088,0.011329,0.000186241,0,0,0.0570272,-0.0177532,0,0.000968453,0,0,0,0.0332638,0.00449967,0.011329,0.370987,0.0163642,0.0260303,6.99998e-07,0.22,0.4,0
0.0122932,0.00139132,0.0336197,0.00407705,0.011309,1.29423e-05,0,0,0.0580077,-0.0188031,0,6.73e-05,0,0,0,0.0336197,0.00407704,0.011309,0.0251007,0.0163352,0.0266724,7.38386e-07,0.24,0.4,0
0.013463,0.00147526,0.0339827,0.00372453,0.0113122,-0.000160726,0,0,0.0589433,-0.0197278,0,-0.000835773,0,0,0,0.0339835,0.00372368,0.0113122,-0.304333,0.0163398,0.0272693,7.75958e-07,0.26,0.4,0
0.014651,0.00155431,0.0343549,0.00345249,0.0113422,-0.000326777,0,0,0.059833,-0.0205133,0,-0.00169924,0,0,0,0.0343583,0.00344904,0.0113422,-0.605783,0.0163832,0.0278157,8.12617e-07,0.28,0.4,0
0.0158563,0.00163052,0.0347405,0.00327354,0.0114042,-0.000472349,0,0,0.0606743,-0.0211397,0,-0.00245621,0,0,0,0.0347476,0.00326645,0.0114042,-0.859805,0.0164727,0.0283037,8.48158e-07,0.3,0.4,0
0.0170779,0.00170723,0.0351446,0.00320548,0.011505,-0.000576187,0,0,0.061463,-0.0215788,0,-0.00299617,0,0,0,0.035155,0.00319509,0.011505,-1.03318,0.0166184,0.0287212,8.82176e-07,0.32,0.4,0
0.0183148,0.00178959,0.0355716,0.00327381,0.0116536,-0.000603587,0,0,0.0621868,-0.0217875,0,-0.00313865,0,0,0,0.0355829,0.00326254,0.0116536,-1.07026,0.016833,0.0290485,9.1376e-07,0.34,0.4,0
0.0195654,0.0018853,0.0360127,0.00351826,0.0118593,-0.000499421,0,0,0.0627989,-0.0216867,0,-0.00259699,0,0,0,0.0360204,0.00351058,0.0118593,-0.880326,0.0171301,0.0292433,9.40233e-07,0.36,0.4,0
0.0208268,0.00200516,0.0363504,0.0039893,0.0121019,-0.000197544,0,0,0.063046,-0.0210928,0,-0.00102723,0,0,0,0.0363516,0.00398809,0.0121019,-0.349738,0.0174805,0.0291657,9.49548e-07,0.38,0.4,0
0.0220873,0.00215924,0.0363304,0.00492578,0.0123769,0.000223672,0,0,0.0622793,-0.0193728,0,0.00116309,0,0,0,0.036332,0.00492419,0.0123769,0.408047,0.0178777,0.028424,9.11745e-07,0.4,0.4,0
0.0233179,0.00232247,0.0364069,0.00265586,0.0117188,0.000426567,0,0,0.047478,-0.0157092,0,0.00192719,0,0,0,0.0364142,0.00264854,0.0117188,0.776128,0.0169272,0.0303257,9.86847e-07,0.42,0.4,0
0.0239864,0.00243189,0.0365529,0.000406671,0.0110879,-0.000204679,0,0,0.0331046,-0.0138856,0,-0.000532165,0,0,0,0.0365541,0.000405512,0.0110879,-0.324425,0.0160158,0.0321665,1.09547e-06,0.44,0.4,0
0.0246421,0.00249696,0.0363205,0.000116432,0.0109311,-0.000546608,0,0,0.0330063,-0.014059,0,-0.00142118,0,0,0,0.0363288,0.000108181,0.0109311,-0.864787,0.0157893,0.0322033,1.08494e-06,0.46,0.4,0
0.0253066,0.00253387,0.036583,0.000100299,0.011005,-0.000631346,0,0,0.0332515,-0.0141761,0,-0.0016415,0,0,0,0.036594,8.93764e-05,0.011005,-0.991127,0.0158961,0.0324541,1.10952e-06,0.48,0.4,0
0.0259722,0.00256452,0.0365674,-2.2278e-05,0.0109635,-0.000490014,0,0,0.033285,-0.0142816,0,-0.00127404,0,0,0,0.0365739,-2.88391e-05,0.0109635,-0.76713,0.0158362,0.0325307,1.11155e-06,0.5,0.4,0
0.026638,0.00259406,0.036533,-2.0129e-05,0.0109539,-0.000341481,0,0,0.0332529,-0.0142662,0,-0.000887852,0,0,0,0.0365362,-2.33189e-05,0.0109539,-0.535198,0.0158223,0.0324927,1.10794e-06,0.52,0.4,0
0.0273023,0.00262462,0.036458,1.74438e-05,0.0109426,-0.000225733,0,0,0.03317,-0.0142027,0,-0.000586906,0,0,0,0.0364594,1.60456e-05,0.0109426,-0.354904,0.015806,0.032393,1.09969e-06,0.54,0.4,0
0.0279648,0.00265503,0.0363918,5.36239e-05,0.0109336,-0.000170323,0,0,0.0330956,-0.014144,0,-0.000442841,0,0,0,0.0363926,5.28256e-05,0.0109336,-0.268548,0.015793,0.0323042,1.09247e-06,0.56,0.4,0
0.0286261,0.00268384,0.0363464,2.67882e-05,0.0109119,-0.000159154,0,0,0.0330647,-0.0141507,0,-0.0004138,0,0,0,0.0363471,2.60908e-05,0.0109119,-0.251066,0.0157617,0.0322851,1.08923e-06,0.58,0.4,0
0.0292874,0.00271006,0.0363363,-8.86721e-05,0.0108743,-0.000165092,0,0,0.0331006,-0.0142518,0,-0.000429238,0,0,0,0.036337,-8.94203e-05,0.0108743,-0.259679,0.0157073,0.0323685,1.09204e-06,0.6,0.4,0
0.0299501,0.00273382,0.0363611,-0.000293772,0.0108202,-0.000155332,0,0,0.0332031,-0.0144481,0,-0.000403864,0,0,0,0.0363617,-0.00029443,0.0108202,-0.242797,0.0156292,0.0325544,1.10079e-06,0.62,0.4,0
0.0306155,0.00275637,0.0364039,-0.000563907,0.010752,-0.0001033,0,0,0.0333475,-0.0147107,0,-0.000268579,0,0,0,0.0364042,-0.000564196,0.010752,-0.160101,0.0155307,0.0328082,1.11314e-06,0.64,0.4,0
0.031284,0.0027795,0.0364436,-0.000837281,0.0106819,5.73505e-06,0,0,0.0334903,-0.0149749,0,1.49111e-05,0,0,0,0.0364436,-0.000837282,0.0106819,0.008814,0.0154294,0.0330623,1.12522e-06,0.66,0.4,0
0.0319552,0.00280478,0.0364092,-0.00107234,0.0106011,0.000145231,0,0,0.0335506,-0.0151754,0,0.000377601,0,0,0,0.0364098,-0.0010729,0.0106011,0.222002,0.0153126,0.0332214,1.1293e-06,0.68,0.4,0
0.0326261,0.00283099,0.0362643,-0.0011808,0.010525,0.000286422,0,0,0.033461,-0.0152176,0,0.000744697,0,0,0,0.0362664,-0.001183,0.010525,0.438228,0.0152028,0.0331825,1.11944e-06,0.7,0.4,0
0.0332936,0.00285505,0.0357484,-0.0013484,0.01032,0.000292491,0,0,0.0330569,-0.0151689,0,0.000760477,0,0,0,0.0357507,-0.00135071,0.01032,0.451714,0.0149067,0.0328591,1.07767e-06,0.72,0.4,0
0.0339483,0.00286296,0.0361877,-0.00114449,0.0105129,0.000137037,0,0,0.0333771,-0.0151547,0,0.000356295,0,0,0,0.0361882,-0.00114499,0.0105129,0.210314,0.0151854,0.0330824,1.11115e-06,0.74,0.4,0
0.0346287,0.00282998,0.0358007,9.2896e-05,0.0107681,-0.000329266,0,0,0.0480764,-0.0185036,0,-0.00177936,0,0,0,0.0358088,8.47358e-05,0.0107681,-0.618896,0.0155539,0.0318299,1.00943e-06,0.76,0.4,0
0.0358714,0.00272045,0.0358594,0.00271171,0.0115713,-0.000412112,0,0,0.0631489,-0.023035,0,-0.00214298,0,0,0,0.0358645,0.00270659,0.0115713,-0.712189,0.0167141,0.0297337,9.56531e-07,0.78,0.4,0
0.0371546,0.00259575,0.0362094,0.0022566,0.0115398,0.00020643,0,0,0.064141,-0.0241363,0,0.00107344,0,0,0,0.0362107,0.00225534,0.0115398,0.348337,0.0166686,0.0303958,1.00163e-06,0.8,0.4,0
0.038437,0.00251727,0.0358862,0.00125659,0.0111428,0.000703975,0,0,0.0643328,-0.0257043,0,0.00366067,0,0,0,0.0359005,0.00124228,0.0111428,1.16411,0.0160952,0.0309205,1.01011e-06,0.82,0.4,0
0.039728,0.00248553,0.0357469,0.000577761,0.0108974,0.000907279,0,0,0.0646087,-0.026831,0,0.00471785,0,0,0,0.0357703,0.000554371,0.0108974,1.47678,0.0157407,0.0313512,1.02147e-06,0.84,0.4,0
0.0410214,0.00247661,0.0355527,0.000101377,0.0106962,0.000907109,0,0,0.0646269,-0.0275466,0,0.00471697,0,0,0,0.0355759,7.8182e-05,0.0106962,1.46477,0.0154501,0.0315581,1.01974e-06,0.86,0.4,0
0.042313,0.00247941,0.0353319,-0.000249797,0.0105246,0.000825375,0,0,0.0644989,-0.0280135,0,0.00429195,0,0,0,0.0353511,-0.000268932,0.0105246,1.32812,0.0152023,0.0316357,1.01101e-06,0.88,0.4,0
0.0436013,0.00248771,0.0351267,-0.000507866,0.0103856,0.000707181,0,0,0.0643267,-0.0283231,0,0.00367734,0,0,0,0.0351407,-0.000521895,0.0103856,1.13646,0.0150015,0.0316513,1.00055e-06,0.9,0.4,0
0.0448861,0.00249779,0.0349527,-0.000695954,0.010277,0.000572807,0,0,0.0641567,-0.0285297,0,0.0029786,0,0,0,0.0349619,-0.000705156,0.010277,0.92032,0.0148446,0.0316393,9.90689e-07,0.92,0.4,0
0.0461676,0.00250738,0.0348158,-0.000829472,0.0101959,0.000431682,0,0,0.0640118,-0.028666,0,0.00224475,0,0,0,0.034821,-0.000834699,0.0101959,0.693745,0.0147274,0.0316181,9.82493e-07,0.94,0.4,0
0.0474466,0.00251507,0.0347178,-0.000918616,0.0101398,0.000288173,0,0,0.063903,-0.0287518,0,0.0014985,0,0,0,0.0347201,-0.000920947,0.0101398,0.463281,0.0146463,0.0315976,9.76444e-07,0.96,0.4,0
0.0487237,0.00251998,0.0346591,-0.000969778,0.0101068,0.000144097,0,0,0.0638359,-0.0287991,0,0.000749303,0,0,0,0.0346597,-0.00097036,0.0101068,0.231721,0.0145987,0.0315836,9.72756e-07,0.98,0.4,0
0.05,0.00252166,0.0346395,-0.00098646,0.0100959,1.62093e-05,0,0,0.0638133,-0.0288142,0,8.42886e-05,0,0,0,0.0346395,-0.000986467,0.0100959,0.0260688,0.014583,0.0315786,9.7152e-07,1,0.4,0
0,0,0.0296165,0.0126928,0.0126928,0.000791666,0,0,0.0440017,2.1684e-19,0,0.00411666,0,0,0,0.0296535,0.0126558,0.0126928,2.67243,0.018334,0.0169792,2.51402e-07,0,0.42,0
0.000880034,8.23333e-05,0.0295175,0.01158,0.0123293,0.000784323,0,0,0.0446895,-0.00194809,0,0.00407848,0,0,0,0.0295518,0.0115458,0.0123293,2.49891,0.0178089,0.0176273,2.79435e-07,0.02,0.42,0
0.00178758,0.000170089,0.0298892,0.0107096,0.0121796,0.000785221,0,0,0.0460448,-0.00382208,0,0.00408315,0,0,0,0.0299213,0.0106775,0.0121796,2.3405,0.0175928,0.0185384,3.19986e-07,0.04,0.42,0
0.00272183,0.000261343,0.0302544,0.00987498,0.0120388,0.000760412,0,0,0.0473605,-0.00562596,0,0.00395414,0,0,0,0.0302827,0.00984665,0.0120388,2.13391,0.0173894,0.019433,3.60791e-07,0.06,0.42,0
0.003682,0.000354382,0.030614,0.00907617,0.0119071,0.000711904,0,0,0.0486381,-0.00736031,0,0.0037019,0,0,0,0.0306375,0.00905267,0.0119071,1.89108,0.0171991,0.0203087,4.01696e-07,0.08,0.42,0
0.00466735,0.000447676,0.0309683,0.00831437,0.0117848,0.000641392,0,0,0.0498772,-0.00902316,0,0.00333524,0,0,0,0.0309865,0.00829622,0.0117848,1.62046,0.0170225,0.0211627,4.42525e-07,0.1,0.42,0
0.00567709,0.000539873,0.0313174,0.00759165,0.0116727,0.000550439,0,0,0.0510761,-0.0106108,0,0.00286228,0,0,0,0.0313301,0.00757889,0.0116727,1.32831,0.0168606,0.021992,4.83094e-07,0.12,0.42,0
0.0067104,0.000629805,0.0316612,0.00691073,0.0115716,0.000440588,0,0,0.052233,-0.0121182,0,0.00229106,0,0,0,0.031669,0.00690289,0.0115716,1.0195,0.0167145,0.0227933,5.23217e-07,0.14,0.42,0
0.00776641,0.000716507,0.0319999,0.00627472,0.0114824,0.000313445,0,0,0.0533455,-0.0135399,0,0.00162992,0,0,0,0.0320037,0.0062709,0.0114824,0.697976,0.0165857,0.0235633,5.62727e-07,0.16,0.42,0
0.00884422,0.000799238,0.032334,0.00568704,0.0114063,0.000170751,0,0,0.0544119,-0.0148701,0,0.000887903,0,0,0,0.0323351,0.00568595,0.0114063,0.367125,0.0164758,0.0242993,6.01479e-07,0.18,0.42,0
0.00994289,0.000877521,0.0326643,0.00515143,0.0113447,1.44771e-05,0,0,0.0554309,-0.0161025,0,7.52808e-05,0,0,0,0.0326643,0.00515143,0.0113447,0.0301486,0.0163868,0.0249984,6.39361e-07,0.2,0.42,0
0.0110615,0.000951191,0.0329922,0.00467195,0.0112993,-0.000152984,0,0,0.0564017,-0.017231,0,-0.000795518,0,0,0,0.032993,0.00467112,0.0112993,-0.309496,0.0163211,0.0256582,6.76299e-07,0.22,0.42,0
0.012199,0.00102047,0.0333199,0.00425317,0.0112719,-0.000328495,0,0,0.0573247,-0.0182488,0,-0.00170817,0,0,0,0.0333236,0.00424946,0.0112719,-0.647413,0.0162817,0.0262764,7.12261e-07,0.24,0.42,0
0.0133544,0.00108608,0.0336505,0.00390042,0.0112653,-0.000507588,0,0,0.0582017,-0.0191487,0,-0.00263946,0,0,0,0.0336592,0.00389176,0.0112653,-0.977185,0.0162721,0.026851,7.47273e-07,0.26,0.42,0
0.014527,0.0011494,0.0339893,0.0036201,0.0112828,-0.000683502,0,0,0.0590369,-0.0199231,0,-0.00355421,0,0,0,0.0340047,0.00360472,0.0112828,-1.28865,0.0162974,0.0273806,7.81449e-07,0.28,0.42,0
0.0157159,0.00121275,0.0343449,0.00342015,0.0113295,-0.000845601,0,0,0.0598401,-0.0205644,0,-0.00439712,0,0,0,0.034368,0.00339705,0.0113295,-1.56512,0.0163649,0.0278648,8.15088e-07,0.3,0.42,0
0.0169206,0.00127976,0.0347331,0.00331091,0.0114132,-0.000976865,0,0,0.0606317,-0.0210659,0,-0.0050797,0,0,0,0.0347634,0.00328057,0.0114132,-1.77894,0.0164857,0.0283067,8.48886e-07,0.32,0.42,0
0.0181412,0.00135595,0.0351831,0.00330759,0.0115472,-0.00104919,0,0,0.0614534,-0.021423,0,-0.00545577,0,0,0,0.0352176,0.00327309,0.0115472,-1.88318,0.0166793,0.0287159,8.84363e-07,0.34,0.42,0
0.0193788,0.00144984,0.0357493,0.00343809,0.0117562,-0.00101509,0,0,0.062382,-0.0216271,0,-0.00527844,0,0,0,0.0357812,0.00340623,0.0117562,-1.79763,0.0169812,0.0291123,9.24571e-07,0.36,0.42,0
0.0206365,0.00157445,0.0365308,0.00377598,0.012092,-0.000770355,0,0,0.0635409,-0.0216218,0,-0.00400584,0,0,0,0.0365489,0.00375787,0.012092,-1.34653,0.0174663,0.0295199,9.74772e-07,0.38,0.42,0
0.0219204,0.00175405,0.0372478,0.00436912,0.0124851,-0.000187884,0,0,0.0643831,-0.0211015,0,-0.000976996,0,0,0,0.0372489,0.00436805,0.0124851,-0.3274,0.018034,0.0296672,1.01029e-06,0.4,0.42,0
0.0232118,0.00200855,0.0366206,0.00171566,0.0115009,-0.000279469,0,0,0.0487981,-0.016961,0,-0.00011818,0,0,0,0.0366378,0.00169846,0.0115009,-0.336946,0.0166124,0.0312928,1.02426e-06,0.42,0.42,0
0.0238723,0.00216098,0.0374256,0.000747666,0.011452,0.000427703,0,0,0.0337657,-0.0139156,0,0.00111203,0,0,0,0.0374306,0.000742679,0.011452,0.668007,0.0165418,0.0326771,1.16467e-06,0.44,0.42,0
0.0245624,0.00221161,0.0378441,0.000605236,0.0115348,-0.000548935,0,0,0.0342021,-0.0142084,0,-0.00142723,0,0,0,0.0378522,0.000597146,0.0115348,-0.844348,0.0166614,0.0331676,1.21003e-06,0.46,0.42,0
0.0252404,0.00224735,0.037237,-3.63794e-05,0.0111602,-0.000478376,0,0,0.0338999,-0.0145556,0,-0.00124378,0,0,0,0.0372432,-4.2518e-05,0.0111602,-0.735187,0.0161203,0.0331364,1.17414e-06,0.48,0.42,0
0.0259184,0.00227534,0.0370689,-0.000138158,0.0110792,-0.000380901,0,0,0.0337866,-0.0145826,0,-0.000990342,0,0,0,0.0370728,-0.000142057,0.0110792,-0.586474,0.0160033,0.0330645,1.16142e-06,0.5,0.42,0
0.0265919,0.00230626,0.0368346,-0.000162634,0.0110016,-0.00020971,0,0,0.033583,-0.0145135,0,-0.000545245,0,0,0,0.0368358,-0.000163822,0.0110016,-0.324752,0.0158912,0.0328713,1.14003e-06,0.52,0.42,0
0.0272617,0.00233892,0.036687,-3.69651e-05,0.010995,-0.000113559,0,0,0.0333996,-0.0143416,0,-0.000295252,0,0,0,0.0366873,-3.73163e-05,0.010995,-0.177169,0.0158817,0.0326382,1.1222e-06,0.54,0.42,0
0.0279278,0.00237132,0.0365612,5.63094e-05,0.0109853,-8.8866e-05,0,0,0.0332488,-0.0142076,0,-0.000231052,0,0,0,0.0365614,5.60931e-05,0.0109853,-0.139477,0.0158676,0.0324517,1.10765e-06,0.56,0.42,0
0.0285917,0.0024004,0.0364888,6.30622e-05,0.0109656,-0.000121709,0,0,0.0331802,-0.0141733,0,-0.000316444,0,0,0,0.0364892,6.26555e-05,0.0109656,-0.191439,0.0158392,0.0323823,1.10088e-06,0.58,0.42,0
0.0292551,0.00242464,0.0364695,-5.20874e-05,0.0109252,-0.000173259,0,0,0.0332075,-0.0142705,0,-0.000450475,0,0,0,0.0364703,-5.29093e-05,0.0109252,-0.271805,0.0157809,0.0324578,1.10291e-06,0.6,0.42,0
0.02992,0.00244415,0.036502,-0.000290299,0.0108635,-0.000206822,0,0,0.03333,-0.0144999,0,-0.000537738,0,0,0,0.0365031,-0.000291462,0.0108635,-0.322066,0.0156917,0.0326777,1.11355e-06,0.62,0.42,0
0.0305883,0.00246077,0.0365822,-0.00061832,0.0107892,-0.000181808,0,0,0.0335309,-0.0148297,0,-0.000472702,0,0,0,0.0365831,-0.000619209,0.0107892,-0.28001,0.0155843,0.0330113,1.13127e-06,0.64,0.42,0
0.0312612,0.00247794,0.0366727,-0.000979734,0.0107079,-7.92293e-05,0,0,0.0337542,-0.0151939,0,-0.000205996,0,0,0,0.0366728,-0.000979901,0.0107079,-0.120563,0.0154669,0.0333805,1.15085e-06,0.66,0.42,0
0.0319384,0.00249839,0.0368242,-0.00119201,0.0106897,0.000112816,0,0,0.0339749,-0.0154462,0,0.000293321,0,0,0,0.0368245,-0.00119234,0.0106897,0.170027,0.0154406,0.033686,1.17165e-06,0.68,0.42,0
0.0326202,0.00252438,0.0369011,-0.00131178,0.0106768,0.00027299,0,0,0.0340916,-0.0155851,0,0.000709774,0,0,0,0.036903,-0.00131373,0.0106768,0.409289,0.015422,0.0338534,1.18282e-06,0.7,0.42,0
0.0333021,0.00254749,0.037473,-0.00091793,0.0109665,0.0004496,0,0,0.0344584,-0.0154498,0,0.00116896,0,0,0,0.0374783,-0.000923194,0.0109665,0.670874,0.0158405,0.0340508,1.22582e-06,0.72,0.42,0
0.0339986,0.00255913,0.0370882,-0.00123239,0.0107568,-0.000447799,0,0,0.0342309,-0.0155859,0,-0.00116428,0,0,0,0.0370935,-0.00123762,0.0107568,-0.669413,0.0155375,0.0339615,1.19865e-06,0.74,0.42,0
0.0346713,0.00246293,0.0362696,-0.000564689,0.0107115,0.000151188,0,0,0.0496319,-0.0195453,0,-0.000505785,0,0,0,0.036289,-0.000584047,0.0107115,0.0910504,0.0154721,0.0328142,1.05388e-06,0.76,0.42,0
0.0359838,0.00224313,0.0370172,0.00226483,0.0117846,-6.17204e-06,0,0,0.0656048,-0.0247514,0,-3.20946e-05,0,0,0,0.0370172,0.00226483,0.0117846,-0.0101758,0.0170222,0.031105,1.07158e-06,0.78,0.42,0
0.0372955,0.00209162,0.0364379,0.00163493,0.0114218,0.000608015,0,0,0.0650416,-0.025446,0,0.00316168,0,0,0,0.0364485,0.00162431,0.0114218,1.00056,0.0164982,0.031105,1.04445e-06,0.8,0.42,0
0.0385855,0.00200102,0.0357504,0.00111658,0.0110601,0.000999605,0,0,0.0641948,-0.0258531,0,0.00519795,0,0,0,0.0357792,0.00108775,0.0110601,1.65184,0.0159757,0.0309353,1.00488e-06,0.82,0.42,0
0.0398633,0.0019519,0.0353046,0.000590885,0.0107686,0.00114312,0,0,0.0637935,-0.0264622,0,0.00594423,0,0,0,0.0353422,0.000553283,0.0107686,1.88403,0.0155547,0.0309716,9.85057e-07,0.84,0.42,0
0.0411372,0.00193041,0.0350459,0.000185758,0.0105695,0.00112891,0,0,0.0636386,-0.0269977,0,0.00587035,0,0,0,0.0350824,0.000149238,0.0105695,1.85288,0.0152671,0.0310628,9.75714e-07,0.86,0.42,0
0.0424089,0.00192436,0.0348508,-0.00012552,0.0104176,0.0010238,0,0,0.0635264,-0.0274121,0,0.00532378,0,0,0,0.0348808,-0.000155462,0.0104176,1.67521,0.0150476,0.031127,9.67984e-07,0.88,0.42,0
0.0436783,0.00192648,0.0346898,-0.000363686,0.0102978,0.000876108,0,0,0.0634191,-0.02772,0,0.00455576,0,0,0,0.0347117,-0.00038557,0.0102978,1.43083,0.0148747,0.0311608,9.6064e-07,0.9,0.42,0
0.0449456,0.00193229,0.034558,-0.000542654,0.0102046,0.00070909,0,0,0.0633188,-0.0279429,0,0.00368727,0,0,0,0.0345723,-0.000556972,0.0102046,1.15684,0.01474,0.0311742,9.54007e-07,0.92,0.42,0
0.046211,0.00193899,0.0344551,-0.00067262,0.0101347,0.000534116,0,0,0.0632328,-0.0280991,0,0.0027774,0,0,0,0.0344632,-0.00068074,0.0101347,0.870913,0.0146391,0.0311765,9.48497e-07,0.94,0.42,0
0.0474749,0.0019448,0.0343813,-0.000760773,0.0100862,0.000356434,0,0,0.0631674,-0.028202,0,0.00185346,0,0,0,0.0343849,-0.000764387,0.0100862,0.581051,0.0145689,0.031174,9.44399e-07,0.96,0.42,0
0.0487377,0.00194867,0.034337,-0.000811868,0.0100575,0.000178195,0,0,0.0631266,-0.0282605,0,0.000926612,0,0,0,0.0343379,-0.000812771,0.0100575,0.290463,0.0145276,0.0311711,9.41882e-07,0.98,0.42,0
0.05,0.00195002,0.0343223,-0.000828607,0.0100481,1.29826e-05,0,0,0.0631128,-0.0282794,0,6.75095e-05,0,0,0,0.0343223,-0.000828612,0.0100481,0.0211616,0.0145139,0.0311699,9.41035e-07,1,0.42,0
0,0,0.0294879,0.0126377,0.0126377,0.000423162,0,0,0.0438106,0,0,0.00220044,0,0,0,0.0294985,0.012627,0.0126377,1.43767,0.0182544,0.0168662,2.46419e-07,0,0.44,0
0.000876212,4.40089e-05,0.0293923,0.0115625,0.0122865,0.000416416,0,0,0.0444753,-0.00188224,0,0.00216536,0,0,0,0.0294021,0.0115528,0.0122865,1.33717,0.0177471,0.017494,2.73342e-07,0.02,0.44,0
0.00177901,9.48674e-05,0.0297507,0.0107192,0.012141,0.000423956,0,0,0.0457854,-0.0036967,0,0.00220457,0,0,0,0.0297602,0.0107097,0.012141,1.2755,0.017537,0.0183767,3.1222e-07,0.04,0.44,0
0.00270763,0.00015059,0.0301025,0.00990912,0.0120035,0.000405091,0,0,0.0470574,-0.00544536,0,0.00210647,0,0,0,0.0301106,0.00990099,0.0120035,1.14877,0.0173384,0.0192447,3.51376e-07,0.06,0.44,0
0.00366131,0.000209461,0.0304479,0.0091329,0.0118742,0.000362383,0,0,0.0482915,-0.00712747,0,0.00188439,0,0,0,0.030454,0.00912674,0.0118742,0.973728,0.0171517,0.0200949,3.90618e-07,0.08,0.44,0
0.00463929,0.000269997,0.0307867,0.008392,0.0117536,0.000297854,0,0,0.049486,-0.00874019,0,0.00154884,0,0,0,0.0307907,0.00838804,0.0117536,0.761866,0.0169774,0.0209238,4.2974e-07,0.1,0.44,0
0.00564075,0.000330923,0.0311186,0.00768864,0.0116422,0.000213193,0,0,0.0506387,-0.0102792,0,0.0011086,0,0,0,0.0311205,0.0076867,0.0116422,0.521286,0.0168165,0.0217278,4.68522e-07,0.12,0.44,0
0.00666483,0.000391173,0.0314431,0.00702555,0.0115406,0.000109899,0,0,0.0517465,-0.0117391,0,0.000571473,0,0,0,0.0314436,0.00702505,0.0115406,0.25787,0.0166697,0.0225031,5.06741e-07,0.14,0.44,0
0.00771061,0.000449895,0.0317598,0.00640581,0.0114497,-1.06089e-05,0,0,0.0528063,-0.0131141,0,-5.51664e-05,0,0,0,0.0317598,0.0064058,0.0114497,-0.0239744,0.0165384,0.0232461,5.44184e-07,0.16,0.44,0
0.00877708,0.000506466,0.0320685,0.00583273,0.0113704,-0.00014689,0,0,0.0538151,-0.0143978,0,-0.000763826,0,0,0,0.0320693,0.00583191,0.0113704,-0.320776,0.0164239,0.0239533,5.80651e-07,0.18,0.44,0
0.00986321,0.000560532,0.0323693,0.0053098,0.0113037,-0.000297369,0,0,0.0547704,-0.0155842,0,-0.00154632,0,0,0,0.0323725,0.00530653,0.0113037,-0.629549,0.0163276,0.0246214,6.15971e-07,0.2,0.44,0
0.0109679,0.00061205,0.0326627,0.00484063,0.011251,-0.000460177,0,0,0.0556704,-0.0166669,0,-0.00239292,0,0,0,0.0326703,0.00483302,0.011251,-0.947326,0.0162514,0.0252477,6.50005e-07,0.22,0.44,0
0.01209,0.000661365,0.0329499,0.00442901,0.0112137,-0.000632893,0,0,0.0565141,-0.0176401,0,-0.00329104,0,0,0,0.0329639,0.00441497,0.0112137,-1.27059,0.0161975,0.0258296,6.82658e-07,0.24,0.44,0
0.0132285,0.000709315,0.033233,0.00407887,0.0111936,-0.000812177,0,0,0.0573026,-0.0184982,0,-0.00422332,0,0,0,0.0332556,0.00405626,0.0111936,-1.5945,0.0161685,0.0263655,7.13903e-07,0.26,0.44,0
0.0143821,0.000757386,0.0335162,0.00379429,0.0111931,-0.000993224,0,0,0.0580399,-0.019237,0,-0.00516476,0,0,0,0.0335493,0.00376113,0.0111931,-1.91182,0.0161679,0.0268549,7.43829e-07,0.28,0.44,0
0.0155501,0.000807947,0.0338065,0.00357937,0.0112158,-0.00116903,0,0,0.0587359,-0.0198546,0,-0.00607896,0,0,0,0.0338516,0.00353423,0.0112158,-2.21151,0.0162005,0.0272996,7.7273e-07,0.3,0.44,0
0.0167316,0.000864589,0.034117,0.00343829,0.0112666,-0.00132937,0,0,0.059411,-0.0203535,0,-0.00691272,0,0,0,0.0341745,0.0033808,0.0112666,-2.47656,0.0162739,0.0277057,8.01297e-07,0.32,0.44,0
0.0179265,0.000932671,0.0344718,0.00337617,0.0113544,-0.00145938,0,0,0.0601053,-0.0207434,0,-0.0075888,0,0,0,0.0345402,0.00330783,0.0113544,-2.68116,0.0164008,0.0280872,8.31001e-07,0.34,0.44,0
0.0191358,0.00102021,0.0349175,0.00340282,0.0114961,-0.00153389,0,0,0.0608956,-0.0210425,0,-0.00797623,0,0,0,0.034992,0.00332834,0.0114961,-2.77995,0.0166055,0.0284724,8.64831e-07,0.36,0.44,0
0.0203623,0.00114029,0.0355675,0.00355814,0.0117377,-0.00150862,0,0,0.0619574,-0.0212668,0,-0.00784482,0,0,0,0.0356384,0.0034872,0.0117377,-2.69243,0.0169544,0.0289224,9.10137e-07,0.38,0.44,0
0.0216141,0.00131518,0.0366331,0.00394042,0.0121721,-0.00102939,0,0,0.0635987,-0.0214023,0,-0.00535283,0,0,0,0.0366655,0.00390804,0.0121721,-1.80169,0.0175819,0.0295065,9.78796e-07,0.4,0.44,0
0.0229063,0.00164402,0.0423356,0.00225468,0.0133771,-0.00146629,0,0,0.0522541,-0.0198051,0,-0.00576778,0,0,0,0.042393,0.00219731,0.0133771,-2.22561,0.0193225,0.0359358,1.87013e-06,0.42,0.44,0
0.0238278,0.00187526,0.0337937,0.000955872,0.0104249,0.000547439,0,0,0.0418985,-0.0168383,0,0.00218889,0,0,0,0.0338038,0.00094573,0.0104249,1.03639,0.0150581,0.0292927,9.97681e-07,0.44,0.44,0
0.0244987,0.00192862,0.037761,0.000586198,0.0115042,0.000299168,0,0,0.0341339,-0.0141933,0,0.000777836,0,0,0,0.0377634,0.000583791,0.0115042,0.461053,0.0166171,0.0330993,1.20196e-06,0.46,0.44,0
0.0251932,0.00195165,0.0378672,0.000215754,0.0114249,-0.000251359,0,0,0.034375,-0.0145719,0,-0.000653533,0,0,0,0.0378689,0.000214076,0.0114249,-0.382481,0.0165026,0.0334877,1.22529e-06,0.48,0.44,0
0.0258737,0.00198121,0.037185,-0.000381155,0.0110411,-0.000117734,0,0,0.033987,-0.014849,0,-0.000306109,0,0,0,0.0371853,-0.000381524,0.0110411,-0.179566,0.0159483,0.0333561,1.17996e-06,0.5,0.44,0
0.0265526,0.00201352,0.0370291,-0.000250644,0.0110335,-3.64439e-05,0,0,0.0337942,-0.0146694,0,-9.47542e-05,0,0,0,0.0370291,-0.00025068,0.0110335,-0.0560111,0.0159373,0.0331126,1.16091e-06,0.52,0.44,0
0.0272254,0.00205096,0.0368243,-6.86238e-05,0.0110267,3.01986e-05,0,0,0.0335369,-0.0144239,0,7.85164e-05,0,0,0,0.0368244,-6.86486e-05,0.0110267,0.0468992,0.0159275,0.0327851,1.13585e-06,0.54,0.44,0
0.0278941,0.00208673,0.036713,0.00010535,0.0110455,-4.14261e-06,0,0,0.0333678,-0.0142222,0,-1.07708e-05,0,0,0,0.036713,0.00010535,0.0110455,-0.00648373,0.0159546,0.0325471,1.11987e-06,0.56,0.44,0
0.0285601,0.00211691,0.0366346,0.000125682,0.0110281,-8.0684e-05,0,0,0.0332885,-0.0141731,0,-0.000209779,0,0,0,0.0366348,0.000125504,0.0110281,-0.126622,0.0159295,0.0324615,1.11205e-06,0.58,0.44,0
0.0292257,0.00213924,0.0366083,1.13508e-05,0.0109859,-0.000169121,0,0,0.0333091,-0.0142669,0,-0.000439714,0,0,0,0.0366091,1.05693e-05,0.0109859,-0.264766,0.0158685,0.0325304,1.11347e-06,0.6,0.44,0
0.0298925,0.00215382,0.0366333,-0.00024042,0.0109179,-0.000245474,0,0,0.03343,-0.0145058,0,-0.000638232,0,0,0,0.0366349,-0.000242054,0.0109179,-0.381404,0.0157702,0.0327553,1.12403e-06,0.62,0.44,0
0.0305629,0.00216319,0.0366898,-0.000651544,0.0108115,-0.000275317,0,0,0.0336418,-0.0149019,0,-0.000715825,0,0,0,0.0366918,-0.000653574,0.0108115,-0.42241,0.0156166,0.0331355,1.14242e-06,0.64,0.44,0
0.0312382,0.00217175,0.0368335,-0.00108072,0.0107258,-0.000193817,0,0,0.0339399,-0.0153485,0,-0.000503923,0,0,0,0.0368344,-0.00108171,0.0107258,-0.292885,0.0154929,0.0336059,1.16917e-06,0.66,0.44,0
0.0319205,0.00218693,0.0369357,-0.00145649,0.0106438,-7.38354e-05,0,0,0.0341795,-0.0157303,0,-0.000191972,0,0,0,0.0369359,-0.00145663,0.0106438,-0.11019,0.0153743,0.0339976,1.19031e-06,0.68,0.44,0
0.0326054,0.00220758,0.037567,-0.00113506,0.0109296,0.000115693,0,0,0.0346286,-0.015684,0,0.000300802,0,0,0,0.0375673,-0.00113541,0.0109296,0.171274,0.0157872,0.0343004,1.24139e-06,0.7,0.44,0
0.0333056,0.00223706,0.037498,-0.00102873,0.0109408,-0.000348247,0,0,0.0345244,-0.0155604,0,-0.000905443,0,0,0,0.0375011,-0.00103188,0.0109408,-0.517847,0.0158033,0.0341584,1.23157e-06,0.72,0.44,0
0.0339863,0.00223952,0.0336177,-0.000762992,0.00985642,-0.000636886,0,0,0.0426161,-0.0188923,0,-0.00255188,0,0,0,0.0336309,-0.00077615,0.00985642,-1.1529,0.0142371,0.0305137,1.03609e-06,0.74,0.44,0
0.0349245,0.00204817,0.0420664,-0.000143465,0.0125769,0.00121875,0,0,0.05322,-0.0227039,0,0.00479324,0,0,0,0.0421041,-0.00018109,0.0125769,1.75674,0.0181666,0.0375686,1.95259e-06,0.76,0.44,0
0.0362414,0.0017304,0.0365021,0.00187778,0.011514,0.000752048,0,0,0.0649691,-0.0250541,0,0.00391065,0,0,0,0.0365184,0.00186145,0.011514,1.2437,0.0166313,0.0309798,1.0422e-06,0.78,0.44,0
0.0375232,0.00157791,0.0354959,0.00130942,0.0110416,0.00130711,0,0,0.0635812,-0.0253037,0,0.00679695,0,0,0,0.0355458,0.00125951,0.0110416,2.18642,0.015949,0.0305916,9.79491e-07,0.8,0.44,0
0.0387847,0.00148315,0.034923,0.000938465,0.0107584,0.00139079,0,0,0.0628278,-0.0255319,0,0.00723212,0,0,0,0.0349798,0.000881643,0.0107584,2.33957,0.01554,0.0303884,9.44718e-07,0.82,0.44,0
0.0400363,0.00142704,0.0345875,0.000605592,0.0105579,0.00138733,0,0,0.0624769,-0.0258761,0,0.0072141,0,0,0,0.034644,0.000549048,0.0105579,2.33395,0.0152503,0.0303545,9.27624e-07,0.84,0.44,0
0.0412838,0.0013967,0.0343766,0.000289596,0.0103999,0.00130448,0,0,0.0623395,-0.0262867,0,0.0067833,0,0,0,0.0344264,0.000239748,0.0103999,2.18839,0.015022,0.0304075,9.19276e-07,0.86,0.44,0
0.0425299,0.00138293,0.0342391,2.29563e-05,0.0102786,0.00116576,0,0,0.0622972,-0.0266647,0,0.00606193,0,0,0,0.0342787,-1.67154e-05,0.0102786,1.94907,0.0148469,0.030481,9.14849e-07,0.88,0.44,0
0.0437756,0.00137891,0.0341366,-0.000193078,0.0101831,0.000993083,0,0,0.0622792,-0.026978,0,0.00516403,0,0,0,0.0341653,-0.000221782,0.0101831,1.6556,0.0147089,0.0305441,9.11585e-07,0.9,0.44,0
0.0450211,0.00138008,0.034056,-0.000361845,0.0101082,0.000803023,0,0,0.0622641,-0.0272222,0,0.00417572,0,0,0,0.0340747,-0.000380571,0.0101082,1.33583,0.0146008,0.0305906,9.08776e-07,0.92,0.44,0
0.0462662,0.00138342,0.0339934,-0.00048772,0.0100517,0.000605005,0,0,0.0622485,-0.0274025,0,0.00314603,0,0,0,0.0340041,-0.000498332,0.0100517,1.0049,0.0145191,0.0306222,9.06385e-07,0.94,0.44,0
0.047511,0.00138698,0.0339484,-0.000574647,0.0100121,0.000403936,0,0,0.0622344,-0.0275256,0,0.00210047,0,0,0,0.0339532,-0.000579373,0.0100121,0.670265,0.014462,0.0306419,9.04542e-07,0.96,0.44,0
0.0487556,0.00138956,0.0339212,-0.000625596,0.00998869,0.00020202,0,0,0.0622246,-0.0275971,0,0.00105051,0,0,0,0.0339224,-0.000626777,0.00998869,0.335035,0.0144281,0.0306525,9.0338e-07,0.98,0.44,0
0.05,0.00139049,0.0339121,-0.000642376,0.00998092,8.92401e-06,0,0,0.0622211,-0.0276206,0,4.64048e-05,0,0,0,0.0339121,-0.000642379,0.00998092,0.0147971,0.0144169,0.0306559,9.02983e-07,1,0.44,0
0,0,0.0293388,0.0125738,0.0125738,6.77282e-05,0,0,0.0435891,-5.42101e-19,0,0.000352187,0,0,0,0.0293391,0.0125735,0.0125738,0.231461,0.0181621,0.0167654,2.4203e-07,0,0.46,0
0.000871781,7.04373e-06,0.0292469,0.0115382,0.0122355,6.18094e-05,0,0,0.0442296,-0.00181313,0,0.000321409,0,0,0,0.0292471,0.0115379,0.0122355,0.199978,0.0176735,0.0173709,2.67746e-07,0.02,0.46,0
0.00176918,2.22207e-05,0.0295914,0.0107225,0.0120941,7.60036e-05,0,0,0.0454927,-0.00356636,0,0.000395219,0,0,0,0.0295917,0.0107222,0.0120941,0.230782,0.0174693,0.0182223,3.04831e-07,0.04,0.46,0
0.00269149,4.35288e-05,0.0299289,0.00993702,0.0119598,6.37049e-05,0,0,0.0467197,-0.00525916,0,0.000331265,0,0,0,0.0299291,0.00993681,0.0119598,0.182573,0.0172752,0.0190615,3.42236e-07,0.06,0.46,0
0.00363797,6.92835e-05,0.0302591,0.00918302,0.0118326,2.79251e-05,0,0,0.0479088,-0.006889,0,0.000145211,0,0,0,0.0302591,0.00918298,0.0118326,0.0759148,0.0170916,0.0198842,3.7972e-07,0.08,0.46,0
0.00460784,9.80685e-05,0.0305812,0.00846245,0.0117131,-2.90234e-05,0,0,0.0490571,-0.00845171,0,-0.000150921,0,0,0,0.0305813,0.00846241,0.0117131,-0.075181,0.0169189,0.020686,4.17028e-07,0.1,0.46,0
0.00560026,0.000128706,0.0308944,0.00777781,0.0116016,-0.000105309,0,0,0.050161,-0.00994198,0,-0.000547607,0,0,0,0.0308948,0.00777733,0.0116016,-0.261008,0.0167579,0.0214624,4.53896e-07,0.12,0.46,0
0.00661428,0.000160241,0.0311974,0.00713201,0.0114988,-0.000199416,0,0,0.0512163,-0.0113537,0,-0.00103696,0,0,0,0.0311991,0.00713036,0.0114988,-0.474734,0.0166094,0.0222091,4.9005e-07,0.14,0.46,0
0.00764891,0.000191945,0.0314893,0.0065282,0.0114053,-0.000310012,0,0,0.0522186,-0.0126804,0,-0.00161206,0,0,0,0.0314932,0.00652435,0.0114053,-0.711454,0.0164743,0.0229215,5.25219e-07,0.16,0.46,0
0.00870303,0.000223325,0.0317691,0.00596963,0.0113216,-0.000435829,0,0,0.0531635,-0.0139152,0,-0.00226631,0,0,0,0.0317765,0.00596227,0.0113216,-0.967526,0.0163535,0.0235955,5.59141e-07,0.18,0.46,0
0.00977545,0.000254153,0.0320359,0.00545962,0.0112487,-0.000575547,0,0,0.0540469,-0.0150515,0,-0.00299284,0,0,0,0.0320484,0.00544716,0.0112487,-1.24004,0.0162481,0.0242272,5.91568e-07,0.2,0.46,0
0.0108649,0.000284513,0.0322891,0.00500144,0.0111872,-0.000727639,0,0,0.054865,-0.0160829,0,-0.00378373,0,0,0,0.0323085,0.00498205,0.0111872,-1.52638,0.0161592,0.0248128,6.22273e-07,0.22,0.46,0
0.01197,0.000314867,0.0325282,0.0045982,0.0111379,-0.000890191,0,0,0.0556147,-0.0170032,0,-0.00462899,0,0,0,0.0325565,0.00456986,0.0111379,-1.82368,0.0160881,0.025349,6.51056e-07,0.24,0.46,0
0.0130895,0.000346151,0.0327533,0.00425277,0.0111018,-0.00106065,0,0,0.0562938,-0.0178075,0,-0.00551537,0,0,0,0.0327927,0.00421336,0.0111018,-2.12834,0.0160359,0.0258333,6.77755e-07,0.26,0.46,0
0.0142218,0.000379924,0.032965,0.00396749,0.0110798,-0.00123552,0,0,0.0569017,-0.0184919,0,-0.00642469,0,0,0,0.0330176,0.00391494,0.0110798,-2.43536,0.0160041,0.0262637,7.02256e-07,0.28,0.46,0
0.0153656,0.000418571,0.0331648,0.00374371,0.0110725,-0.00140996,0,0,0.0574398,-0.019055,0,-0.00733181,0,0,0,0.0332322,0.00367629,0.0110725,-2.73746,0.0159937,0.0266393,7.24507e-07,0.3,0.46,0
0.0165194,0.000465613,0.0333542,0.00358102,0.0110806,-0.00157725,0,0,0.0579114,-0.0194988,0,-0.0082017,0,0,0,0.0334375,0.0034977,0.0110806,-3.024,0.0160053,0.0269604,7.44499e-07,0.32,0.46,0
0.017682,0.000526212,0.0335319,0.00347524,0.0111022,-0.00172718,0,0,0.0583174,-0.01983,0,-0.00898136,0,0,0,0.0336309,0.00337631,0.0111022,-3.27807,0.0160364,0.0272265,7.62074e-07,0.34,0.46,0
0.0188521,0.000608136,0.0336845,0.00341459,0.0111297,-0.00184182,0,0,0.0586424,-0.0200594,0,-0.00957746,0,0,0,0.0337961,0.00330293,0.0111297,-3.46919,0.0160763,0.0274305,7.76294e-07,0.36,0.46,0
0.0200277,0.000723777,0.0337189,0.00334217,0.0111183,-0.0018674,0,0,0.0587615,-0.020218,0,-0.0097105,0,0,0,0.0338332,0.0032278,0.0111183,-3.50466,0.0160598,0.027522,7.81415e-07,0.38,0.46,0
0.0212025,0.000897955,0.0337038,0.00325079,0.0110864,-0.001638,0,0,0.0588052,-0.0203725,0,-0.00851758,0,0,0,0.0337916,0.00316294,0.0110864,-3.07,0.0160136,0.0275357,7.80504e-07,0.4,0.46,0
0.0223799,0.00118477,0.0346835,0.00223393,0.0110752,-0.0016056,0,0,0.0613816,-0.0229874,0,-0.00834914,0,0,0,0.0347628,0.00215467,0.0110752,-2.82579,0.0159976,0.0291887,8.86565e-07,0.42,0.46,0
0.0236578,0.00151297,0.0395608,0.000736331,0.0120892,-0.00114707,0,0,0.0499429,-0.0204601,0,-0.00498763,0,0,0,0.0396056,0.000691621,0.0120892,-1.89441,0.0174621,0.0346512,1.55087e-06,0.44,0.46,0
0.0245172,0.00164388,0.0315481,0.000163612,0.0095135,-2.67428e-06,0,0,0.0393867,-0.0166003,0,-0.000401962,0,0,0,0.0315512,0.000160506,0.0095135,-0.155465,0.0137417,0.0279154,8.41216e-07,0.46,0.46,0
0.0251617,0.00166448,0.0363748,-0.000198958,0.0108527,0.000251945,0,0,0.0331786,-0.0143672,0,0.000655058,0,0,0,0.0363765,-0.000200694,0.0108527,0.394669,0.0156762,0.0324925,1.09915e-06,0.48,0.46,0
0.0258443,0.00168138,0.0371318,-0.000324464,0.0110422,-6.93285e-05,0,0,0.0339165,-0.0147767,0,-0.000180254,0,0,0,0.0371319,-0.000324592,0.0110422,-0.106049,0.0159498,0.0332631,1.17303e-06,0.5,0.46,0
0.0265183,0.00171948,0.0368246,-0.000446368,0.0109135,0.0001098,0,0,0.0336845,-0.0147678,0,0.00028548,0,0,0,0.0368249,-0.000446692,0.0109135,0.168791,0.0157639,0.033088,1.1482e-06,0.52,0.46,0
0.0271917,0.00176197,0.0369035,9.80971e-06,0.011074,8.30962e-05,0,0,0.0335784,-0.0143834,0,0.00021605,0,0,0,0.0369037,9.62255e-06,0.011074,0.129047,0.0159958,0.032793,1.14061e-06,0.54,0.46,0
0.0278615,0.00180243,0.0368602,0.000167043,0.0111082,6.60471e-06,0,0,0.0334776,-0.0142235,0,1.71722e-05,0,0,0,0.0368602,0.000167042,0.0111082,0.0103131,0.0160451,0.0326287,1.13135e-06,0.56,0.46,0
0.0285308,0.00183348,0.0368565,0.000159451,0.0111048,-6.76193e-05,0,0,0.0334772,-0.0142289,0,-0.00017581,0,0,0,0.0368566,0.000159327,0.0111048,-0.105575,0.0160402,0.0326317,1.13127e-06,0.58,0.46,0
0.0292006,0.00185396,0.0368254,4.57308e-05,0.0110613,-0.000125273,0,0,0.0334933,-0.0143203,0,-0.00032571,0,0,0,0.0368258,4.53041e-05,0.0110613,-0.195149,0.0159775,0.0326953,1.13222e-06,0.6,0.46,0
0.0298705,0.00186392,0.0367689,-0.000177007,0.0109776,-0.000199482,0,0,0.0335287,-0.0145009,0,-0.000518654,0,0,0,0.0367699,-0.000178084,0.0109776,-0.309346,0.0158565,0.0328242,1.1344e-06,0.62,0.46,0
0.0305417,0.00186469,0.0367523,-0.000578569,0.0108521,-0.000272734,0,0,0.0336702,-0.0148599,0,-0.000709107,0,0,0,0.0367542,-0.000580561,0.0108521,-0.418565,0.0156753,0.0331324,1.14591e-06,0.64,0.46,0
0.0312173,0.001864,0.0366227,-0.00129146,0.0105994,-0.000281568,0,0,0.0338303,-0.0154581,0,-0.000732076,0,0,0,0.0366248,-0.00129355,0.0105994,-0.425473,0.0153102,0.0335899,1.15595e-06,0.66,0.46,0
0.0318949,0.00186918,0.0368696,-0.00145835,0.0106234,-7.33032e-05,0,0,0.0341201,-0.0157063,0,-0.000190588,0,0,0,0.0368698,-0.00145849,0.0106234,-0.109579,0.0153449,0.0339404,1.18407e-06,0.68,0.46,0
0.0325821,0.00189701,0.036111,-0.00157529,0.0103607,-0.000331815,0,0,0.0334754,-0.0155168,0,-0.000862718,0,0,0,0.0361139,-0.00157821,0.0103607,-0.504417,0.0149655,0.0333651,1.11706e-06,0.7,0.46,0
0.0332339,0.00192508,0.0313547,-0.00127985,0.00902245,-7.51121e-05,0,0,0.039933,-0.0183089,0,0.00012359,0,0,0,0.0313578,-0.001283,0.00902245,0.0119774,0.0130324,0.0289009,8.6382e-07,0.72,0.46,0
0.034106,0.00183256,0.0392453,-0.00143125,0.0113442,0.000923272,0,0,0.0507406,-0.0230421,0,0.00412199,0,0,0,0.0392753,-0.00146124,0.0113442,1.48112,0.0163861,0.0360809,1.59873e-06,0.74,0.46,0
0.0354063,0.00151545,0.0344951,0.000216382,0.0104135,0.00131906,0,0,0.0626124,-0.0265124,0,0.00685909,0,0,0,0.0345458,0.0001657,0.0104135,2.20042,0.0150417,0.0305727,9.31073e-07,0.76,0.46,0
0.0366105,0.00124097,0.0335906,0.00118671,0.0104332,0.00136121,0,0,0.0602093,-0.0240409,0,0.00707828,0,0,0,0.0336477,0.00112963,0.0104332,2.40122,0.0150702,0.0290077,8.32648e-07,0.78,0.46,0
0.0378146,0.00107947,0.0336244,0.00104844,0.0104019,0.00160564,0,0,0.0603786,-0.0243189,0,0.00834933,0,0,0,0.0337033,0.000969495,0.0104019,2.81496,0.0150249,0.0291842,8.41534e-07,0.8,0.46,0
0.0390257,0.000979745,0.0336719,0.000885914,0.0103674,0.00161017,0,0,0.0605919,-0.0246518,0,0.00837288,0,0,0,0.0337508,0.000807026,0.0103674,2.80488,0.0149751,0.0293554,8.4987e-07,0.82,0.46,0
0.0402383,0.000916861,0.0336185,0.000653901,0.0102817,0.00152534,0,0,0.0606757,-0.0250324,0,0.00793174,0,0,0,0.033689,0.000583471,0.0102817,2.64365,0.0148514,0.0294782,8.51587e-07,0.84,0.46,0
0.0414527,0.000878946,0.0335669,0.000412677,0.0101939,0.00139748,0,0,0.0607699,-0.0254311,0,0.00726689,0,0,0,0.0336257,0.000353876,0.0101939,2.40937,0.0147245,0.0296048,8.53261e-07,0.86,0.46,0
0.0426691,0.000857768,0.0335282,0.000186782,0.0101145,0.00123554,0,0,0.0608756,-0.025812,0,0.00642483,0,0,0,0.0335739,0.000141059,0.0101145,2.11935,0.0146098,0.0297285,8.55233e-07,0.88,0.46,0
0.0438877,0.000847363,0.0334998,-7.42154e-06,0.0100477,0.00104971,0,0,0.0609755,-0.0261434,0,0.00545851,0,0,0,0.0335327,-4.02747e-05,0.0100477,1.79262,0.0145134,0.0298367,8.57061e-07,0.9,0.46,0
0.0451081,0.000843405,0.0334769,-0.000165243,0.00999351,0.000849137,0,0,0.0610569,-0.0264127,0,0.00441551,0,0,0,0.0334983,-0.000186662,0.00999351,1.44493,0.0144351,0.0299232,8.58403e-07,0.92,0.46,0
0.04633,0.000842885,0.0334581,-0.000286138,0.00995158,0.000640608,0,0,0.0611169,-0.0266181,0,0.00333116,0,0,0,0.0334702,-0.000298295,0.00995158,1.08719,0.0143745,0.0299875,8.59248e-07,0.94,0.46,0
0.0475528,0.000843776,0.0334437,-0.000371128,0.00992176,0.00042828,0,0,0.0611569,-0.0267615,0,0.00222705,0,0,0,0.0334491,-0.000376552,0.00992176,0.725522,0.0143314,0.0300314,8.59713e-07,0.96,0.46,0
0.0487763,0.000844786,0.0334345,-0.000421493,0.00990392,0.000214392,0,0,0.0611796,-0.0268461,0,0.00111484,0,0,0,0.0334359,-0.00042285,0.00990392,0.362803,0.0143057,0.0300567,8.59931e-07,0.98,0.46,0
0.05,0.000845199,0.0334314,-0.000438169,0.00989798,3.96979e-06,0,0,0.061187,-0.026874,0,2.06429e-05,0,0,0,0.0334314,-0.000438169,0.00989798,0.00671552,0.0142971,0.030065,8.59992e-07,1,0.46,0
0,0,0.0291727,0.0125026,0.0125026,-0.000274195,0,0,0.0433424,2.1684e-19,0,-0.00142582,0,0,0,0.0291773,0.0124981,0.0125026,-0.942078,0.0180593,0.0166769,2.38217e-07,0,0.48,0
0.000866847,-2.85163e-05,0.0290846,0.0115073,0.0121776,-0.000279035,0,0,0.0439584,-0.00174281,0,-0.00145098,0,0,0,0.0290891,0.0115028,0.0121776,-0.909245,0.0175898,0.0172588,2.62669e-07,0.02,0.48,0
0.00175833,-4.7787e-05,0.0294149,0.0107192,0.0120402,-0.000258211,0,0,0.0451742,-0.00343475,0,-0.0013427,0,0,0,0.0294185,0.0107156,0.0120402,-0.791123,0.0173914,0.018077,2.97904e-07,0.04,0.48,0
0.00267382,-5.97766e-05,0.029738,0.00995776,0.0119087,-0.000263252,0,0,0.0463561,-0.0050725,0,-0.00136891,0,0,0,0.0297415,0.00995426,0.0119087,-0.76236,0.0172015,0.018886,3.33512e-07,0.06,0.48,0
0.00361258,-6.60986e-05,0.0300527,0.00922512,0.0117833,-0.000290802,0,0,0.0475003,-0.00665138,0,-0.00151217,0,0,0,0.0300567,0.00922106,0.0117833,-0.799777,0.0170204,0.01968,3.69198e-07,0.08,0.48,0
0.00457383,-6.80717e-05,0.0303577,0.0085238,0.0116644,-0.000338307,0,0,0.0486024,-0.00816566,0,-0.0017592,0,0,0,0.0303629,0.00851856,0.0116644,-0.887492,0.0168486,0.0204537,4.04653e-07,0.1,0.48,0
0.00555667,-6.67563e-05,0.0306514,0.00785674,0.0115524,-0.000403786,0,0,0.0496572,-0.00960879,0,-0.00209969,0,0,0,0.0306585,0.00784959,0.0115524,-1.01452,0.0166868,0.0212014,4.39558e-07,0.12,0.48,0
0.00656012,-6.29752e-05,0.0309321,0.0072271,0.0114478,-0.000485655,0,0,0.0506592,-0.0109737,0,-0.0025254,0,0,0,0.030942,0.00721715,0.0114478,-1.17319,0.0165356,0.021918,4.73585e-07,0.14,0.48,0
0.00758304,-5.732e-05,0.0311981,0.00663815,0.0113509,-0.000582575,0,0,0.0516027,-0.012253,0,-0.00302939,0,0,0,0.0312119,0.00662434,0.0113509,-1.35807,0.0163957,0.0225981,5.06403e-07,0.16,0.48,0
0.00862422,-5.01418e-05,0.0314475,0.00609318,0.0112622,-0.000693322,0,0,0.0524817,-0.0134394,0,-0.00360527,0,0,0,0.0314664,0.00607424,0.0112622,-1.56521,0.0162676,0.0232367,5.37684e-07,0.18,0.48,0
0.00968231,-4.15287e-05,0.0316784,0.00559536,0.0111821,-0.000816639,0,0,0.0532904,-0.0145256,0,-0.00424652,0,0,0,0.031704,0.00556982,0.0111821,-1.79154,0.016152,0.023829,5.67105e-07,0.2,0.48,0
0.0107558,-3.12643e-05,0.0318891,0.00514764,0.011111,-0.000951088,0,0,0.054023,-0.0155048,0,-0.00494566,0,0,0,0.0319229,0.00511386,0.011111,-2.03436,0.0160493,0.0243703,5.9435e-07,0.22,0.48,0
0.0118432,-1.87645e-05,0.0320774,0.00475261,0.011049,-0.00109486,0,0,0.0546739,-0.0163706,0,-0.00569325,0,0,0,0.0321212,0.00470881,0.011049,-2.29084,0.0159597,0.0248564,6.19112e-07,0.24,0.48,0
0.0129428,-2.98509e-06,0.0322411,0.00441224,0.010996,-0.00124551,0,0,0.0552373,-0.0171178,0,-0.00647667,0,0,0,0.0322968,0.0043566,0.010996,-2.55752,0.0158831,0.025283,6.41086e-07,0.26,0.48,0
0.0140527,1.77108e-05,0.0323775,0.0041275,0.0109515,-0.00139967,0,0,0.0557077,-0.0177424,0,-0.00727826,0,0,0,0.0324467,0.00405832,0.0109515,-2.82952,0.0158189,0.0256463,6.59955e-07,0.28,0.48,0
0.0151711,4.57481e-05,0.0324827,0.00389773,0.0109141,-0.00155237,0,0,0.0560784,-0.0182427,0,-0.00807233,0,0,0,0.0325668,0.00381367,0.0109141,-3.09942,0.0157649,0.0259422,6.75363e-07,0.3,0.48,0
0.0162959,8.46374e-05,0.0325503,0.00371923,0.0108809,-0.00169592,0,0,0.0563406,-0.0186203,0,-0.00881879,0,0,0,0.0326498,0.00361982,0.0108809,-3.35487,0.0157168,0.0261662,6.86833e-07,0.32,0.48,0
0.0174247,0.000139472,0.0325693,0.00358292,0.0108457,-0.00181681,0,0,0.0564814,-0.0188831,0,-0.00944739,0,0,0,0.0326827,0.00346949,0.0108457,-3.57255,0.015666,0.0263123,6.93656e-07,0.34,0.48,0
0.0185551,0.000217836,0.0325209,0.00346652,0.0107962,-0.00188777,0,0,0.0564841,-0.0190572,0,-0.00981642,0,0,0,0.032643,0.00334438,0.0107962,-3.70198,0.0155945,0.0263745,6.94827e-07,0.36,0.48,0
0.0196841,0.000331573,0.0324375,0.00333934,0.010733,-0.00184705,0,0,0.0564315,-0.0192236,0,-0.00960464,0,0,0,0.0325542,0.00322256,0.010733,-3.61758,0.0155033,0.0263905,6.92584e-07,0.38,0.48,0
0.0208124,0.000500276,0.0325322,0.00304933,0.0106745,-0.001702,0,0,0.0568301,-0.0198253,0,-0.00885039,0,0,0,0.0326301,0.0029514,0.0106745,-3.29301,0.0154187,0.0266695,7.05848e-07,0.4,0.48,0
0.0219573,0.000724528,0.032262,0.00168339,0.0101836,-0.00151759,0,0,0.0574037,-0.0221005,0,-0.00789145,0,0,0,0.0323371,0.00160826,0.0101836,-2.83426,0.0147097,0.0274643,7.24745e-07,0.42,0.48,0
0.0231085,0.00100994,0.0332072,0.000645352,0.0101558,-0.0020241,0,0,0.0599337,-0.0247271,0,-0.0105253,0,0,0,0.0333325,0.000520013,0.0101558,-3.54342,0.0146694,0.0292119,8.2644e-07,0.44,0.48,0
0.0243546,0.00128824,0.0380263,0.000236839,0.0114789,-0.00174819,0,0,0.0483426,-0.0203385,0,-0.00724579,0,0,0,0.0381198,0.000143348,0.0114789,-2.85812,0.0165807,0.0337673,1.39574e-06,0.46,0.48,0
0.0251819,0.00137696,0.0302556,-0.000498253,0.00892721,-0.000609011,0,0,0.0380672,-0.0167297,0,-0.00286729,0,0,0,0.0302776,-0.000520292,0.00892721,-1.40858,0.0128949,0.0273279,7.63931e-07,0.48,0.48,0
0.0258115,0.00139015,0.0352661,-0.00114871,0.0102352,-7.05952e-05,0,0,0.0325401,-0.0147991,0,-0.000183548,0,0,0,0.0352662,-0.00114884,0.0102352,-0.111075,0.0147842,0.0322661,1.02931e-06,0.5,0.48,0
0.0264835,0.00142281,0.0366883,-0.000270738,0.0109253,-0.000145894,0,0,0.0334919,-0.0145548,0,-0.000379325,0,0,0,0.0366889,-0.000271314,0.0109253,-0.226168,0.0157809,0.0328267,1.12994e-06,0.52,0.48,0
0.0271511,0.00147562,0.0368397,7.31939e-05,0.0110739,-0.00014918,0,0,0.0334956,-0.0143009,0,-0.000387868,0,0,0,0.0368403,7.25886e-05,0.0110739,-0.232472,0.0159956,0.0326864,1.13266e-06,0.54,0.48,0
0.0278233,0.00151779,0.037145,0.000104611,0.0111749,-0.000185863,0,0,0.0337612,-0.0143914,0,-0.000483244,0,0,0,0.037146,0.000103678,0.0111749,-0.287492,0.0161415,0.0329333,1.16005e-06,0.56,0.48,0
0.0285016,0.00154775,0.0373636,7.35752e-05,0.0112312,-0.000117572,0,0,0.0339722,-0.0145049,0,-0.000305688,0,0,0,0.037364,7.32046e-05,0.0112312,-0.180646,0.0162228,0.0331514,1.18166e-06,0.58,0.48,0
0.0291822,0.00156643,0.0373307,-3.96659e-05,0.0111873,-1.20135e-05,0,0,0.0339864,-0.0145951,0,-3.12351e-05,0,0,0,0.0373307,-3.96698e-05,0.0111873,-0.0184189,0.0161595,0.033212,1.18234e-06,0.6,0.48,0
0.029861,0.00157379,0.0370467,-0.000239409,0.0110422,5.48087e-05,0,0,0.0338059,-0.0146661,0,0.000142503,0,0,0,0.0370468,-0.00023949,0.0110422,0.0842217,0.0159498,0.0331193,1.1622e-06,0.62,0.48,0
0.0305344,0.00156879,0.0366865,-0.000512094,0.0108523,1.90275e-05,0,0,0.0335844,-0.0147737,0,4.94715e-05,0,0,0,0.0366865,-0.000512104,0.0108523,0.0293075,0.0156756,0.0330173,1.13744e-06,0.64,0.48,0
0.0312044,0.00155342,0.0364694,-0.00114797,0.0105964,2.14409e-05,0,0,0.0336349,-0.0152677,0,5.57464e-05,0,0,0,0.0364694,-0.00114799,0.0105964,0.0326571,0.015306,0.0333348,1.13709e-06,0.66,0.48,0
0.0318798,0.00155868,0.0350216,-0.00229244,0.00981874,-1.00371e-05,0,0,0.0327637,-0.0157445,0,-2.60966e-05,0,0,0,0.0350216,-0.00229244,0.00981874,-0.0154121,0.0141826,0.0329712,1.03881e-06,0.68,0.48,0
0.032515,0.00158691,0.0300581,-0.00171893,0.00850175,0.000541665,0,0,0.0384857,-0.018158,0,0.00264274,0,0,0,0.0300774,-0.00173824,0.00850175,1.24655,0.0122803,0.0281302,7.77406e-07,0.7,0.48,0
0.033352,0.0015318,0.0377097,-0.00161859,0.0108273,0.0015533,0,0,0.0489693,-0.0225275,0,0.00650418,0,0,0,0.0377824,-0.00169123,0.0108273,2.45731,0.0156395,0.0349391,1.42547e-06,0.72,0.48,0
0.0346161,0.00126396,0.032996,-0.00116471,0.00954939,0.00177367,0,0,0.0609612,-0.0278567,0,0.00922308,0,0,0,0.0330879,-0.00125656,0.00954939,2.96425,0.0137936,0.0304168,8.5452e-07,0.74,0.48,0
0.0357904,0.000987671,0.0321035,-0.00023356,0.00956097,0.00123584,0,0,0.0586105,-0.0254658,0,0.00642638,0,0,0,0.0321506,-0.000280722,0.00956097,2.18545,0.0138103,0.0288006,7.61428e-07,0.76,0.48,0
0.0369605,0.000768762,0.0323857,0.000950889,0.010001,0.00139028,0,0,0.0582002,-0.0235302,0,0.00722948,0,0,0,0.032447,0.00088952,0.010001,2.52748,0.0144458,0.0281311,7.52078e-07,0.78,0.48,0
0.0381184,0.00060516,0.0323369,0.00104051,0.0100132,0.00153335,0,0,0.0580416,-0.0233291,0,0.00797342,0,0,0,0.0324119,0.000965562,0.0100132,2.79824,0.0144635,0.0280395,7.47555e-07,0.8,0.48,0
0.0392822,0.000497076,0.0324802,0.000915932,0.0100188,0.00157577,0,0,0.0583996,-0.0236676,0,0.00819399,0,0,0,0.0325587,0.000837461,0.0100188,2.8509,0.0144717,0.0282717,7.61363e-07,0.82,0.48,0
0.0404544,0.000425749,0.0326169,0.000743475,0.0100081,0.00150748,0,0,0.0587829,-0.0240881,0,0.00783889,0,0,0,0.0326881,0.000672337,0.0100081,2.70181,0.0144562,0.0285179,7.75054e-07,0.84,0.48,0
0.0416335,0.000379452,0.0327082,0.000547126,0.0099766,0.00138283,0,0,0.0591022,-0.0245166,0,0.0071907,0,0,0,0.0327675,0.000487778,0.0099766,2.4575,0.0144106,0.0287354,7.85756e-07,0.86,0.48,0
0.0428185,0.000350448,0.0327731,0.000354343,0.00993822,0.00122431,0,0,0.0593706,-0.0249181,0,0.00636643,0,0,0,0.0328192,0.000308172,0.00993822,2.15971,0.0143552,0.0289244,7.94322e-07,0.88,0.48,0
0.0440083,0.000333175,0.0328204,0.000180588,0.0099003,0.00104291,0,0,0.0595923,-0.0252712,0,0.00542311,0,0,0,0.0328537,0.000147299,0.0099003,1.82823,0.0143004,0.0290834,8.01121e-07,0.9,0.48,0
0.0452022,0.000323569,0.0328546,3.4611e-05,0.00986676,0.000846393,0,0,0.0597684,-0.0255636,0,0.00440124,0,0,0,0.0328764,1.27979e-05,0.00986676,1.47629,0.014252,0.029211,8.06344e-07,0.92,0.48,0
0.0463991,0.000318697,0.0328782,-7.99054e-05,0.00983948,0.000640514,0,0,0.0599006,-0.0257904,0,0.00333067,0,0,0,0.0328906,-9.23486e-05,0.00983948,1.11294,0.0142126,0.0293076,8.1015e-07,0.94,0.48,0
0.0475982,0.000316523,0.0328932,-0.000161733,0.00981944,0.000429262,0,0,0.0599918,-0.0259511,0,0.00223216,0,0,0,0.0328988,-0.000167306,0.00981944,0.743894,0.0141836,0.0293748,8.12713e-07,0.96,0.48,0
0.0487987,0.000315716,0.0329015,-0.00021072,0.00980723,0.000215214,0,0,0.0600451,-0.0260467,0,0.00111911,0,0,0,0.0329029,-0.000212118,0.00980723,0.372374,0.014166,0.0294143,8.14184e-07,0.98,0.48,0
0.05,0.000315528,0.0329041,-0.000227019,0.00980313,-1.81216e-06,0,0,0.0600625,-0.0260784,0,-9.42323e-06,0,0,0,0.0329041,-0.000227019,0.00980313,-0.00313389,0.0141601,0.0294273,8.14662e-07,1,0.48,0
0,0,0.0289938,0.0124259,0.0124259,-0.000602584,0,0,0.0430764,1.0842e-19,0,-0.00313344,0,0,0,0.0290156,0.012404,0.0124259,-2.08022,0.0179485,0.0166007,2.34965e-07,0,0.5,0
0.000861529,-6.26687e-05,0.0289094,0.0114703,0.0121139,-0.00060609,0,0,0.0436684,-0.0016735,0,-0.00315167,0,0,0,0.0289305,0.0114492,0.0121139,-1.98809,0.0174979,0.0171586,2.58146e-07,0.02,0.5,0
0.00174674,-0.000115169,0.0292258,0.0107089,0.0119804,-0.000578718,0,0,0.0448379,-0.00330591,0,-0.00300933,0,0,0,0.0292438,0.0106908,0.0119804,-1.78837,0.017305,0.017943,2.91532e-07,0.04,0.5,0
0.00265505,-0.000159371,0.0295346,0.00997034,0.0118515,-0.000575809,0,0,0.0459761,-0.00489097,0,-0.00299421,0,0,0,0.0295515,0.00995341,0.0118515,-1.68437,0.0171188,0.0187214,3.25354e-07,0.06,0.5,0
0.00358578,-0.000196772,0.0298341,0.00925761,0.0117275,-0.000593778,0,0,0.0470772,-0.00642176,0,-0.00308764,0,0,0,0.0298512,0.00924049,0.0117275,-1.65156,0.0169398,0.0194866,3.5926e-07,0.08,0.5,0
0.00453813,-0.000228558,0.0301223,0.00857394,0.0116089,-0.000629881,0,0,0.0481348,-0.00789078,0,-0.00327538,0,0,0,0.0301406,0.00855554,0.0116089,-1.67292,0.0167683,0.020232,3.92884e-07,0.1,0.5,0
0.00551117,-0.000255646,0.0303968,0.00792274,0.0114959,-0.000681999,0,0,0.0491425,-0.00929014,0,-0.0035464,0,0,0,0.0304175,0.00790206,0.0114959,-1.73657,0.0166051,0.020951,4.25853e-07,0.12,0.5,0
0.00650383,-0.000278707,0.0306555,0.00730749,0.0113889,-0.00074845,0,0,0.0500932,-0.0106117,0,-0.00389194,0,0,0,0.0306795,0.00728352,0.0113889,-1.83418,0.0164506,0.0216374,4.57784e-07,0.14,0.5,0
0.0075149,-0.000298177,0.0308959,0.00673164,0.0112883,-0.000827824,0,0,0.0509799,-0.0118472,0,-0.00430468,0,0,0,0.0309242,0.00670332,0.0112883,-1.95979,0.0163053,0.022285,4.88293e-07,0.16,0.5,0
0.00854303,-0.000314253,0.0311155,0.00619851,0.0111942,-0.000918826,0,0,0.0517953,-0.0129888,0,-0.0047779,0,0,0,0.0311493,0.00616468,0.0111942,-2.109,0.0161694,0.0228881,5.16991e-07,0.18,0.5,0
0.00958671,-0.000326872,0.0313115,0.00571114,0.0111068,-0.00102011,0,0,0.0525322,-0.0140287,0,-0.00530458,0,0,0,0.0313521,0.00567055,0.0111068,-2.27828,0.0160431,0.023441,5.43496e-07,0.2,0.5,0
0.0106443,-0.000335678,0.031481,0.00527215,0.011026,-0.0011301,0,0,0.0531832,-0.0149599,0,-0.00587651,0,0,0,0.0315297,0.00522351,0.011026,-2.46443,0.0159264,0.0239383,5.67427e-07,0.22,0.5,0
0.011714,-0.000339959,0.0316209,0.00488358,0.0109513,-0.00124674,0,0,0.0537409,-0.0157762,0,-0.00648304,0,0,0,0.0316789,0.00482557,0.0109513,-2.66395,0.0158186,0.0243748,5.88402e-07,0.24,0.5,0
0.0127939,-0.000338562,0.0317273,0.00454651,0.0108821,-0.00136721,0,0,0.0541974,-0.0164726,0,-0.00710947,0,0,0,0.0317959,0.00447792,0.0108821,-2.87234,0.0157187,0.0247454,6.06035e-07,0.26,0.5,0
0.0138819,-0.000329773,0.0317956,0.00426064,0.0108169,-0.00148743,0,0,0.0545447,-0.0170462,0,-0.00773466,0,0,0,0.0318757,0.00418053,0.0108169,-3.08315,0.0156244,0.0250454,6.19928e-07,0.28,0.5,0
0.0149757,-0.000311136,0.0318202,0.00402333,0.010753,-0.00160133,0,0,0.0547745,-0.0174973,0,-0.00832694,0,0,0,0.0319121,0.00393138,0.010753,-3.28623,0.0155322,0.0252702,6.29663e-07,0.3,0.5,0
0.0160729,-0.000279197,0.0317941,0.00382796,0.0106866,-0.00169936,0,0,0.0548795,-0.0178325,0,-0.00883666,0,0,0,0.031897,0.00372507,0.0106866,-3.46457,0.0154362,0.0254166,6.34846e-07,0.32,0.5,0
0.0171709,-0.000229114,0.0317118,0.00366043,0.0106117,-0.00176615,0,0,0.0548604,-0.0180732,0,-0.00918401,0,0,0,0.0318226,0.00354967,0.0106117,-3.58854,0.015328,0.0254866,6.3531e-07,0.34,0.5,0
0.0182673,-0.000154152,0.0315817,0.00349307,0.0105224,-0.00177728,0,0,0.0547541,-0.0182763,0,-0.00924187,0,0,0,0.0316937,0.00338106,0.0105224,-3.60617,0.0151991,0.0255032,6.32092e-07,0.36,0.5,0
0.0193611,-4.51678e-05,0.0314551,0.00325923,0.0104143,-0.00171836,0,0,0.0547062,-0.0186032,0,-0.00893548,0,0,0,0.0315595,0.00315489,0.0104143,-3.47467,0.0150429,0.0255601,6.3014e-07,0.38,0.5,0
0.0204556,0.000104942,0.0313027,0.00273473,0.0102112,-0.00160902,0,0,0.0548378,-0.0194389,0,-0.00836692,0,0,0,0.031393,0.00264439,0.0102112,-3.21351,0.0147495,0.0258109,6.33971e-07,0.4,0.5,0
0.0215546,0.000300753,0.0313001,0.0019595,0.00997787,-0.00163579,0,0,0.0554377,-0.0208478,0,-0.00850613,0,0,0,0.031391,0.00186858,0.00997787,-3.18121,0.0144125,0.0264183,6.54857e-07,0.42,0.5,0
0.0226731,0.000523891,0.0309474,0.000589308,0.00946102,-0.0017528,0,0,0.0558646,-0.0230664,0,-0.00911455,0,0,0,0.0310483,0.000488441,0.00946102,-3.29352,0.0136659,0.0272068,6.67815e-07,0.44,0.5,0
0.0237892,0.00077921,0.0318223,-2.2045e-05,0.00954008,-0.00249357,0,0,0.0579338,-0.0248615,0,-0.0129666,0,0,0,0.0320164,-0.000216121,0.00954008,-4.45039,0.0137801,0.0286296,7.50372e-07,0.46,0.5,0
0.0249904,0.00101883,0.0364969,-0.000387118,0.0108329,-0.00249415,0,0,0.0467097,-0.0202188,0,-0.00994867,0,0,0,0.0366779,-0.000568112,0.0108329,-4.07407,0.0156476,0.033055,1.26822e-06,0.48,0.5,0
0.0257911,0.00108941,0.0292664,-0.00125931,0.00840212,-0.00150791,0,0,0.0371318,-0.0170885,0,-0.0065481,0,0,0,0.0293697,-0.00136269,0.00840212,-3.29728,0.0121364,0.0271982,7.20992e-07,0.5,0.5,0
0.0264177,0.00113729,0.0350659,-0.000877414,0.0102565,-0.001374,0,0,0.0322521,-0.0144741,0,-0.00357241,0,0,0,0.0351183,-0.000929861,0.0102565,-2.18599,0.014815,0.0319587,1.01038e-06,0.52,0.5,0
0.0270812,0.00118993,0.0369986,-0.00035692,0.0109925,-0.000937682,0,0,0.033808,-0.0147543,0,-0.00243797,0,0,0,0.0370222,-0.000380442,0.0109925,-1.43701,0.0158781,0.0332103,1.16451e-06,0.54,0.5,0
0.02777,0.00122677,0.0380757,-0.000177619,0.0113694,-0.000606072,0,0,0.0347181,-0.0150112,0,-0.00157579,0,0,0,0.0380853,-0.000187219,0.0113694,-0.90747,0.0164225,0.0340006,1.26064e-06,0.56,0.5,0
0.0284699,0.00125328,0.0384649,-0.00020168,0.011479,-0.000225454,0,0,0.0350817,-0.0151848,0,-0.000586179,0,0,0,0.0384662,-0.000202995,0.011479,-0.33406,0.0165807,0.0343517,1.29934e-06,0.58,0.5,0
0.0291733,0.00127016,0.0384349,-0.000314662,0.0114361,0.000157444,0,0,0.0350985,-0.0152759,0,0.000409355,0,0,0,0.0384355,-0.000315301,0.0114361,0.232795,0.0165188,0.0344143,1.30023e-06,0.6,0.5,0
0.0298738,0.00127728,0.0379847,-0.000521113,0.0112391,0.000537697,0,0,0.0347693,-0.0152883,0,0.00139801,0,0,0,0.0379922,-0.00052862,0.0112391,0.799873,0.0162342,0.0341911,1.26321e-06,0.62,0.5,0
0.030564,0.00127374,0.0368409,-0.000948727,0.0107676,0.000864004,0,0,0.0338952,-0.0152313,0,0.00224641,0,0,0,0.0368606,-0.000968471,0.0107676,1.30907,0.0155533,0.0335382,1.16811e-06,0.64,0.5,0
0.0312297,0.00125329,0.0348676,-0.00174124,0.00993789,0.0013175,0,0,0.0324086,-0.0151829,0,0.00342549,0,0,0,0.0349149,-0.0017886,0.00993789,2.05844,0.0143547,0.0324693,1.01646e-06,0.66,0.5,0
0.0318604,0.0012394,0.0290791,-0.00228841,0.00803722,0.00146619,0,0,0.0374599,-0.0182845,0,0.00643249,0,0,0,0.0291773,-0.00238655,0.00803722,3.14358,0.0116093,0.0278554,7.28139e-07,0.68,0.5,0
0.0326688,0.00119722,0.0362046,-0.00195232,0.0102757,0.00233725,0,0,0.0472043,-0.0220506,0,0.00936159,0,0,0,0.0363594,-0.00210712,0.0102757,3.70375,0.0148426,0.0340106,1.28521e-06,0.7,0.5,0
0.0338842,0.0009667,0.0316047,-0.00158421,0.00900615,0.00228873,0,0,0.0587563,-0.0275349,0,0.0119014,0,0,0,0.0317618,-0.0017413,0.00900615,3.92638,0.0130089,0.0296292,7.67684e-07,0.72,0.5,0
0.0350191,0.000718293,0.030765,-0.00110973,0.00889657,0.00150602,0,0,0.0568579,-0.0260164,0,0.00783128,0,0,0,0.030836,-0.00118073,0.00889657,2.69909,0.0128506,0.0283545,6.9186e-07,0.74,0.5,0
0.0361585,0.000496822,0.0311158,6.73358e-05,0.00935495,0.00133509,0,0,0.0565783,-0.0241478,0,0.00694245,0,0,0,0.0311731,1.00328e-05,0.00935495,2.45767,0.0135127,0.0276993,6.87447e-07,0.76,0.5,0
0.0372822,0.000299761,0.0311445,0.000659409,0.00954117,0.00127443,0,0,0.0561686,-0.0230926,0,0.00662704,0,0,0,0.0311977,0.000606224,0.00954117,2.3897,0.0137817,0.0272459,6.74672e-07,0.78,0.5,0
0.0384053,0.000146311,0.031329,0.000965568,0.00968837,0.00135768,0,0,0.0562656,-0.0226793,0,0.00705996,0,0,0,0.0313896,0.000904981,0.00968837,2.55515,0.0139943,0.0271791,6.79793e-07,0.8,0.5,0
0.0395328,3.3042e-05,0.0315091,0.000949742,0.00973767,0.00139679,0,0,0.0566058,-0.0228486,0,0.00726331,0,0,0,0.0315729,0.000886031,0.00973767,2.61158,0.0140655,0.027357,6.92389e-07,0.82,0.5,0
0.0406695,-4.66626e-05,0.0317126,0.000829879,0.00976275,0.00136471,0,0,0.0570696,-0.0232255,0,0.0070965,0,0,0,0.0317728,0.000769689,0.00976275,2.52534,0.0141017,0.0276271,7.08775e-07,0.84,0.5,0
0.0418156,-0.000101719,0.0318898,0.000673988,0.00976914,0.00127173,0,0,0.0575137,-0.0236474,0,0.00661298,0,0,0,0.0319415,0.000622264,0.00976914,2.32907,0.014111,0.0278942,7.2405e-07,0.86,0.5,0
0.0429701,-0.000138955,0.0320307,0.00051077,0.00976244,0.00113841,0,0,0.0578975,-0.0240543,0,0.00591973,0,0,0,0.0320718,0.000469708,0.00976244,2.06577,0.0141013,0.0281314,7.36955e-07,0.88,0.5,0
0.0441315,-0.000163487,0.0321398,0.000357879,0.00974931,0.000977912,0,0,0.0582153,-0.0244177,0,0.00508514,0,0,0,0.0321699,0.000327818,0.00974931,1.76074,0.0140823,0.0283316,7.47439e-07,0.9,0.5,0
0.0452987,-0.000179139,0.0322223,0.00022553,0.00973434,0.000798955,0,0,0.0584686,-0.0247229,0,0.00415457,0,0,0,0.0322422,0.000205593,0.00973434,1.42948,0.0140607,0.0284934,7.55655e-07,0.92,0.5,0
0.0464703,-0.00018873,0.0322822,0.000119438,0.00972048,0.000607759,0,0,0.0586604,-0.0249627,0,0.00316035,0,0,0,0.0322937,0.000107958,0.00972048,1.08217,0.0140407,0.028617,7.61789e-07,0.94,0.5,0
0.0476451,-0.000194266,0.0323227,4.2474e-05,0.00970954,0.000408828,0,0,0.0587941,-0.0251344,0,0.00212591,0,0,0,0.0323279,3.72971e-05,0.00970954,0.725495,0.0140249,0.0287038,7.6602e-07,0.96,0.5,0
0.048822,-0.000197081,0.032346,-4.04492e-06,0.0097026,0.000205428,0,0,0.058873,-0.0252373,0,0.00106823,0,0,0,0.0323473,-5.34937e-06,0.0097026,0.363818,0.0140149,0.0287552,7.68495e-07,0.98,0.5,0
0.05,-0.000197936,0.0323537,-1.95956e-05,0.00970022,-8.22836e-06,0,0,0.058899,-0.0252715,0,-4.27875e-05,0,0,0,0.0323537,-1.95977e-05,0.00970022,-0.0145629,0.0140114,0.0287722,7.69309e-07,1,0.5,0
0,0,0.028806,0.0123454,0.0123454,-0.000917849,0,0,0.0427975,3.25261e-19,0,-0.00477281,0,0,0,0.028857,0.0122944,0.0123454,-3.18169,0.0178323,0.0165372,2.32271e-07,0,0.52,0
0.00085595,-9.54563e-05,0.0287254,0.0114277,0.0120459,-0.000919783,0,0,0.0433666,-0.00160744,0,-0.00478287,0,0,0,0.0287741,0.0113789,0.0120459,-3.03522,0.0173997,0.0170715,2.54214e-07,0.02,0.52,0
0.00173466,-0.000180023,0.0290284,0.0106913,0.0119159,-0.000886012,0,0,0.0444925,-0.00318393,0,-0.00460726,0,0,0,0.0290711,0.0106486,0.0119159,-2.75985,0.0172119,0.0178227,2.85813e-07,0.04,0.52,0
0.00263565,-0.000255415,0.0293238,0.00997377,0.0117893,-0.000874526,0,0,0.0455899,-0.00472034,0,-0.00454753,0,0,0,0.0293633,0.00993433,0.0117893,-2.58246,0.017029,0.0185711,3.17914e-07,0.06,0.52,0
0.00355826,-0.000322969,0.029609,0.0092789,0.0116664,-0.000881616,0,0,0.0466509,-0.00620745,0,-0.0045844,0,0,0,0.0296472,0.00924074,0.0116664,-2.47843,0.0168514,0.0193083,3.5011e-07,0.08,0.52,0
0.00450169,-0.000383703,0.0298813,0.00861069,0.0115476,-0.000904417,0,0,0.0476677,-0.00763599,0,-0.00470297,0,0,0,0.0299197,0.0085723,0.0115476,-2.43034,0.0166799,0.0200262,3.81982e-07,0.1,0.52,0
0.00546497,-0.000438362,0.0301379,0.00797306,0.0114333,-0.000940702,0,0,0.0486321,-0.00899662,0,-0.00489165,0,0,0,0.0301778,0.00793321,0.0114333,-2.42588,0.0165148,0.0207175,4.13107e-07,0.12,0.52,0
0.00644697,-0.000487442,0.030376,0.00736986,0.0113238,-0.000988691,0,0,0.0495359,-0.0102802,0,-0.00514119,0,0,0,0.0304184,0.00732745,0.0113238,-2.45625,0.0163565,0.0213749,4.43053e-07,0.14,0.52,0
0.0074464,-0.000531208,0.0305926,0.0068047,0.0112192,-0.00104688,0,0,0.0503708,-0.0114777,0,-0.00544376,0,0,0,0.0306386,0.00675872,0.0112192,-2.51504,0.0162055,0.0219915,4.71391e-07,0.16,0.52,0
0.0084618,-0.000569692,0.0307846,0.00628093,0.0111197,-0.00111385,0,0,0.0511288,-0.0125807,0,-0.00579202,0,0,0,0.0308351,0.0062304,0.0111197,-2.59732,0.0160617,0.022561,4.97691e-07,0.18,0.52,0
0.00949155,-0.000602676,0.0309487,0.00580141,0.011025,-0.0011881,0,0,0.0518016,-0.0135814,0,-0.0061781,0,0,0,0.0310047,0.00574541,0.011025,-2.69895,0.0159251,0.023077,5.21533e-07,0.2,0.52,0
0.0105339,-0.00062966,0.0310815,0.00536841,0.010935,-0.00126779,0,0,0.052381,-0.0144731,0,-0.00659251,0,0,0,0.0311439,0.00530605,0.010935,-2.81587,0.015795,0.0235338,5.42504e-07,0.22,0.52,0
0.0115868,-0.000649813,0.0311792,0.00498329,0.0108487,-0.00135052,0,0,0.0528591,-0.0152501,0,-0.00702271,0,0,0,0.0312486,0.00491385,0.0108487,-2.94347,0.0156704,0.0239259,5.60204e-07,0.24,0.52,0
0.0126482,-0.000661891,0.0312374,0.00464621,0.0107651,-0.00143295,0,0,0.053228,-0.015909,0,-0.00745136,0,0,0,0.0313144,0.00456921,0.0107651,-3.0757,0.0155496,0.0242484,5.74247e-07,0.26,0.52,0
0.0137159,-0.000664138,0.0312515,0.00435542,0.0106821,-0.00151036,0,0,0.0534805,-0.0164493,0,-0.00785388,0,0,0,0.031336,0.00427087,0.0106821,-3.20405,0.0154297,0.0244971,5.84279e-07,0.28,0.52,0
0.0147874,-0.000654143,0.0312166,0.00410621,0.0105969,-0.00157599,0,0,0.0536115,-0.0168757,0,-0.00819513,0,0,0,0.031308,0.0040149,0.0105969,-3.31584,0.0153066,0.0246696,5.90024e-07,0.3,0.52,0
0.0158604,-0.000628664,0.0311292,0.0038889,0.0105054,-0.00162034,0,0,0.0536218,-0.017203,0,-0.00842578,0,0,0,0.0312253,0.00379285,0.0105054,-3.3922,0.0151745,0.024768,5.91414e-07,0.32,0.52,0
0.0169323,-0.000583457,0.0309904,0.00368504,0.0104026,-0.00163104,0,0,0.0535281,-0.0174657,0,-0.0084814,0,0,0,0.0310874,0.00358796,0.0104026,-3.40633,0.015026,0.0248045,5.8892e-07,0.34,0.52,0
0.0180015,-0.000513217,0.030813,0.00345935,0.0102817,-0.00159786,0,0,0.0533814,-0.0177382,0,-0.00830888,0,0,0,0.0309061,0.00336633,0.0102817,-3.33182,0.0148514,0.0248155,5.84221e-07,0.36,0.52,0
0.0190676,-0.000412555,0.0306067,0.00313724,0.0101232,-0.00152369,0,0,0.0532571,-0.0181634,0,-0.0079232,0,0,0,0.0306909,0.00305298,0.0101232,-3.16518,0.0146224,0.0248684,5.79937e-07,0.38,0.52,0
0.0201318,-0.000277279,0.0304037,0.00265607,0.00991794,-0.0014577,0,0,0.0532631,-0.0188809,0,-0.00758006,0,0,0,0.0304801,0.0025797,0.00991794,-2.99899,0.0143259,0.0250508,5.79938e-07,0.4,0.52,0
0.0211981,-0.000109382,0.0301265,0.00190708,0.00961007,-0.00145594,0,0,0.0533427,-0.0200278,0,-0.00757087,0,0,0,0.0302014,0.00183216,0.00961007,-2.94566,0.0138812,0.0253901,5.82347e-07,0.42,0.52,0
0.0222655,8.72841e-05,0.0299175,0.00112351,0.00931232,-0.00167064,0,0,0.0535736,-0.0212909,0,-0.00868733,0,0,0,0.0300142,0.00102691,0.00931232,-3.30952,0.0134511,0.02586,5.90532e-07,0.44,0.52,0
0.023341,0.00029378,0.0292416,-4.17548e-05,0.00875994,-0.00195706,0,0,0.0532522,-0.0228844,0,-0.0101767,0,0,0,0.0293718,-0.00017197,0.00875994,-3.80663,0.0126532,0.0262437,5.78816e-07,0.46,0.52,0
0.0243956,0.000521959,0.0295831,-0.000500462,0.00872478,-0.00286834,0,0,0.0542316,-0.0239856,0,-0.0149154,0,0,0,0.0298541,-0.000771504,0.00872478,-5.3981,0.0126025,0.0271529,6.2033e-07,0.48,0.52,0
0.0255103,0.000727126,0.0329027,-0.0016213,0.00938441,-0.00309511,0,0,0.0429038,-0.0195576,0,-0.0119928,0,0,0,0.0331887,-0.00190734,0.00938441,-5.2984,0.0135553,0.0310354,9.65127e-07,0.5,0.52,0
0.0262401,0.000843846,0.0296175,-0.000787799,0.00864891,-0.00240076,0,0,0.0363455,-0.0171993,0,-0.0100223,0,0,0,0.0298557,-0.00102598,0.00864891,-5.15107,0.0124929,0.0273768,8.25128e-07,0.52,0.52,0
0.0269641,0.000885448,0.0297343,-0.00066107,0.00872197,-0.00173055,0,0,0.0364214,-0.0167838,0,-0.00699111,0,0,0,0.0298508,-0.00077754,0.00872197,-3.69008,0.0125984,0.0271615,8.25042e-07,0.54,0.52,0
0.0276969,0.00091734,0.030059,-0.000565039,0.00884819,-0.000956634,0,0,0.0367654,-0.0167386,0,-0.00383356,0,0,0,0.030094,-0.000600014,0.00884819,-2.02918,0.0127807,0.0272325,8.43604e-07,0.56,0.52,0
0.0284347,0.000940359,0.0301884,-0.000601183,0.00887616,-0.000311857,0,0,0.0369412,-0.016818,0,-0.00121813,0,0,0,0.0301919,-0.000604697,0.00887616,-0.644524,0.0128211,0.0273226,8.53296e-07,0.58,0.52,0
0.0291746,0.00095539,0.0301608,-0.000712791,0.00883439,0.00030091,0,0,0.0369657,-0.0169535,0,0.00125881,0,0,0,0.0301646,-0.00071664,0.00883439,0.661204,0.0127608,0.0273884,8.54308e-07,0.6,0.52,0
0.0299134,0.000962256,0.0299777,-0.000903235,0.00872233,0.000944288,0,0,0.0368426,-0.0171509,0,0.00387032,0,0,0,0.0300133,-0.000938881,0.00872233,2.02489,0.0125989,0.0274338,8.46767e-07,0.62,0.52,0
0.0306483,0.00095954,0.0295993,-0.00124278,0.00850695,0.00171767,0,0,0.03656,-0.0174943,0,0.00702824,0,0,0,0.0297156,-0.00135911,0.00850695,3.64173,0.0122878,0.027511,8.30425e-07,0.64,0.52,0
0.0313758,0.000946108,0.0294696,-0.00161887,0.00835522,0.00235404,0,0,0.0365983,-0.0182532,0,0.00995095,0,0,0,0.0297005,-0.00184974,0.00835522,4.97442,0.0120687,0.0279073,8.358e-07,0.66,0.52,0
0.0321122,0.000850507,0.0326563,-0.00292463,0.00891949,0.00297501,0,0,0.0433052,-0.0210724,0,0.0115649,0,0,0,0.032914,-0.00318233,0.00891949,4.95895,0.0128837,0.031825,9.70438e-07,0.68,0.52,0
0.0332377,0.000653554,0.0293689,-0.00181705,0.00826555,0.00272235,0,0,0.0548687,-0.0262148,0,0.0141562,0,0,0,0.0296048,-0.00205291,0.00826555,4.95168,0.0119391,0.0279646,6.29592e-07,0.7,0.52,0
0.0343069,0.000430403,0.0290484,-0.00150179,0.00826399,0.00176341,0,0,0.0540395,-0.025391,0,0.00916973,0,0,0,0.0291499,-0.00160324,0.00826399,3.29263,0.0119369,0.0271968,5.93534e-07,0.72,0.52,0
0.0353992,0.000223301,0.0297124,-0.000533062,0.0087538,0.00141494,0,0,0.0544924,-0.0241459,0,0.0073577,0,0,0,0.0297785,-0.000599111,0.0087538,2.67263,0.0126444,0.0269473,6.12121e-07,0.74,0.52,0
0.0364866,2.17596e-05,0.0299312,6.7551e-05,0.00899962,0.00114832,0,0,0.0544221,-0.0232234,0,0.00597126,0,0,0,0.0299753,2.34609e-05,0.00899962,2.19881,0.0129995,0.0266239,6.10904e-07,0.76,0.52,0
0.0375761,-0.000154941,0.0302206,0.00061415,0.00925042,0.00110178,0,0,0.0545224,-0.0224543,0,0.00572924,0,0,0,0.0302615,0.000573206,0.00925042,2.12829,0.0133617,0.0264401,6.16085e-07,0.78,0.52,0
0.0386675,-0.000302011,0.0304509,0.000873328,0.00939726,0.00112597,0,0,0.0547394,-0.0221622,0,0.00585504,0,0,0,0.0304937,0.000830526,0.00939726,2.17696,0.0135738,0.0264419,6.2439e-07,0.8,0.52,0
0.0397657,-0.000416868,0.0306996,0.000943686,0.00949298,0.00116026,0,0,0.0551372,-0.0222282,0,0.00603336,0,0,0,0.0307448,0.000898513,0.00949298,2.2296,0.0137121,0.0266111,6.38459e-07,0.82,0.52,0
0.040873,-0.000503269,0.0309378,0.000886176,0.00954719,0.00115219,0,0,0.0556156,-0.0225186,0,0.0059914,0,0,0,0.0309819,0.000842065,0.00954719,2.19246,0.0137904,0.0268667,6.54908e-07,0.84,0.52,0
0.0419903,-0.000566444,0.0311561,0.000773806,0.00957897,0.00109514,0,0,0.0561006,-0.0228934,0,0.00569473,0,0,0,0.0311955,0.000734383,0.00957897,2.06168,0.0138363,0.0271421,6.71369e-07,0.86,0.52,0
0.043117,-0.000611726,0.0313414,0.000642714,0.00959523,0.000996623,0,0,0.05654,-0.0232766,0,0.00518244,0,0,0,0.0313737,0.000610393,0.00959523,1.85748,0.0138598,0.027399,6.86139e-07,0.88,0.52,0
0.0442519,-0.000643534,0.0314913,0.000513099,0.00960133,0.000867189,0,0,0.056914,-0.0236294,0,0.00450938,0,0,0,0.0315156,0.000488843,0.00960133,1.60224,0.0138686,0.0276218,6.98598e-07,0.9,0.52,0
0.0453936,-0.000665348,0.0316082,0.000397104,0.00960159,0.000715498,0,0,0.0572172,-0.0239317,0,0.00372059,0,0,0,0.0316246,0.00038071,0.00960159,1.31256,0.013869,0.0278048,7.08617e-07,0.92,0.52,0
0.0465406,-0.000679811,0.0316951,0.000301957,0.00959912,0.000548268,0,0,0.0574496,-0.0241726,0,0.002851,0,0,0,0.0317047,0.000292384,0.00959912,1.00024,0.0138654,0.0279464,7.16246e-07,0.94,0.52,0
0.0476916,-0.000688852,0.031755,0.000231844,0.00959605,0.000370687,0,0,0.0576133,-0.0243469,0,0.00192757,0,0,0,0.0317594,0.000227486,0.00959605,0.673628,0.013861,0.0280468,7.2159e-07,0.96,0.52,0
0.0488451,-0.000693775,0.03179,0.000189047,0.00959372,0.000186822,0,0,0.0577104,-0.0244522,0,0.000971472,0,0,0,0.0317911,0.000187943,0.00959372,0.338711,0.0138576,0.0281065,7.24749e-07,0.98,0.52,0
0.05,-0.000695333,0.0318015,0.000174673,0.00959287,-1.49874e-05,0,0,0.0577426,-0.0244873,0,-7.79343e-05,0,0,0,0.0318016,0.000174666,0.00959287,-0.0271514,0.0138564,0.0281264,7.25794e-07,1,0.52,0
0,0,0.0286137,0.012263,0.012263,-0.00122083,0,0,0.0425119,-1.0842e-19,0,-0.00634831,0,0,0,0.0287044,0.0121724,0.012263,-4.24662,0.0177133,0.0164869,2.30142e-07,0,0.54,0
0.000850237,-0.000126966,0.0285366,0.0113801,0.011975,-0.00122098,0,0,0.0430601,-0.00154678,0,-0.00634911,0,0,0,0.028623,0.0112936,0.011975,-4.05039,0.0172972,0.016999,2.50919e-07,0.02,0.54,0
0.0017224,-0.000242527,0.0288275,0.0106663,0.0118481,-0.00118104,0,0,0.0441463,-0.0030728,0,-0.00614142,0,0,0,0.028904,0.0105898,0.0118481,-3.70521,0.017114,0.0177185,2.80845e-07,0.04,0.54,0
0.00261609,-0.000348185,0.0291107,0.00996713,0.0117234,-0.00116046,0,0,0.0452072,-0.0045662,0,-0.0060344,0,0,0,0.0291808,0.00989705,0.0117234,-3.45633,0.0169337,0.0184386,3.11337e-07,0.06,0.54,0
0.00353069,-0.00044507,0.029383,0.00928748,0.0116012,-0.00115551,0,0,0.0462329,-0.00601556,0,-0.00600867,0,0,0,0.0294493,0.00922126,0.0116012,-3.28015,0.0167572,0.0191493,3.41939e-07,0.08,0.54,0
0.00446541,-0.000533997,0.0296411,0.008632,0.0114819,-0.00116329,0,0,0.0472139,-0.00740983,0,-0.00604911,0,0,0,0.0297053,0.00856778,0.0114819,-3.15964,0.016585,0.0198416,3.72186e-07,0.1,0.54,0
0.00541925,-0.000615511,0.0298817,0.00800515,0.011366,-0.00118151,0,0,0.0481406,-0.00873831,0,-0.00614383,0,0,0,0.0299453,0.00794153,0.011366,-3.08248,0.0164176,0.0205071,4.0161e-07,0.12,0.54,0
0.00639103,-0.000689913,0.0301014,0.00741114,0.0112538,-0.00120833,0,0,0.0490039,-0.00999082,0,-0.00628329,0,0,0,0.0301656,0.00734697,0.0112538,-3.03972,0.0162554,0.0211377,4.29743e-07,0.14,0.54,0
0.0073794,-0.000757283,0.030297,0.00685376,0.0111452,-0.00124217,0,0,0.0497945,-0.0111578,0,-0.00645931,0,0,0,0.0303626,0.00678812,0.0111452,-3.02462,0.0160986,0.0217261,4.5612e-07,0.16,0.54,0
0.00838281,-0.00081748,0.030465,0.00633634,0.0110404,-0.00128155,0,0,0.0505039,-0.0122305,0,-0.00666404,0,0,0,0.0305328,0.00626846,0.0110404,-3.03179,0.0159472,0.0222653,4.80293e-07,0.18,0.54,0
0.00939956,-0.000870129,0.0306019,0.00586153,0.010939,-0.00132479,0,0,0.0511234,-0.0132015,0,-0.00688891,0,0,0,0.0306726,0.0057908,0.010939,-3.05641,0.0158008,0.0227489,5.01827e-07,0.2,0.54,0
0.0104277,-0.000914602,0.0307041,0.00543116,0.0108406,-0.00136989,0,0,0.0516452,-0.0140645,0,-0.0071234,0,0,0,0.0307781,0.00535713,0.0108406,-3.09356,0.0156586,0.0231711,5.20317e-07,0.22,0.54,0
0.0114654,-0.000949965,0.0307679,0.00504589,0.0107441,-0.00141416,0,0,0.0520617,-0.0148154,0,-0.00735365,0,0,0,0.0308454,0.00496838,0.0107441,-3.13745,0.0155193,0.023527,5.35389e-07,0.24,0.54,0
0.0125102,-0.000974924,0.0307893,0.00470483,0.0106482,-0.00145402,0,0,0.0523668,-0.0154529,0,-0.00756088,0,0,0,0.0308701,0.00462403,0.0106482,-3.18068,0.0153808,0.0238125,5.46725e-07,0.26,0.54,0
0.01356,-0.000987745,0.0307647,0.00440481,0.0105509,-0.00148456,0,0,0.052556,-0.0159797,0,-0.0077197,0,0,0,0.030848,0.00432147,0.0105509,-3.21329,0.0152401,0.0240254,5.54088e-07,0.28,0.54,0
0.0146125,-0.000986164,0.0306911,0.00413926,0.0104491,-0.0014994,0,0,0.0526292,-0.0164056,0,-0.00779689,0,0,0,0.0307755,0.00405485,0.0104491,-3.22188,0.0150931,0.0241665,5.57403e-07,0.3,0.54,0
0.0156652,-0.000967317,0.0305676,0.00389624,0.0103391,-0.00149083,0,0,0.0525939,-0.0167516,0,-0.00775231,0,0,0,0.0306506,0.00381316,0.0103391,-3.18938,0.0149343,0.0242425,5.56881e-07,0.32,0.54,0
0.0167162,-0.000927742,0.0303973,0.00365535,0.0102158,-0.00145159,0,0,0.0524719,-0.0170571,0,-0.00754826,0,0,0,0.0304758,0.00357679,0.0102158,-3.09796,0.0147561,0.0242704,5.53235e-07,0.34,0.54,0
0.0177641,-0.000863678,0.0301858,0.0033823,0.0100704,-0.00137928,0,0,0.0523,-0.0173892,0,-0.00717224,0,0,0,0.0302566,0.00331151,0.0100704,-2.93802,0.0145462,0.0242817,5.4774e-07,0.36,0.54,0
0.0188082,-0.000771705,0.0299423,0.00303444,0.00989303,-0.00128617,0,0,0.0521282,-0.0178323,0,-0.00668808,0,0,0,0.0300037,0.0029731,0.00989303,-2.73038,0.0142899,0.0243205,5.42139e-07,0.38,0.54,0
0.0198492,-0.000650293,0.0296541,0.00255899,0.00966394,-0.00120029,0,0,0.0519745,-0.0184729,0,-0.0062415,0,0,0,0.0297072,0.00250593,0.00966394,-2.53154,0.013959,0.0244221,5.37136e-07,0.4,0.54,0
0.0208872,-0.000500358,0.0293199,0.00196355,0.00938505,-0.00117744,0,0,0.0518307,-0.0192959,0,-0.0061227,0,0,0,0.0293705,0.00191297,0.00938505,-2.45999,0.0135562,0.0245883,5.32522e-07,0.42,0.54,0
0.0219224,-0.000327745,0.0288189,0.00121081,0.00900891,-0.00123498,0,0,0.051506,-0.0202751,0,-0.0064219,0,0,0,0.028874,0.00115567,0.00900891,-2.55618,0.0130129,0.0247447,5.22116e-07,0.44,0.54,0
0.0229474,-0.000136166,0.0282144,0.000511684,0.00861784,-0.00146152,0,0,0.0509512,-0.021076,0,-0.00759988,0,0,0,0.0282913,0.000434792,0.00861784,-3.01161,0.012448,0.0247992,5.05453e-07,0.46,0.54,0
0.0239605,5.94006e-05,0.0267301,-0.000651636,0.00782354,-0.00164553,0,0,0.049157,-0.0220355,0,-0.00855673,0,0,0,0.0268286,-0.000750171,0.00782354,-3.42679,0.0113007,0.0244468,4.51141e-07,0.48,0.54,0
0.0249137,0.000278244,0.0254723,-0.00139791,0.0072223,-0.00240405,0,0,0.0474499,-0.0224125,0,-0.012501,0,0,0,0.0256856,-0.0016113,0.0072223,-5.07251,0.0104322,0.0241252,4.08859e-07,0.5,0.54,0
0.0258585,0.000449316,0.024351,-0.00133265,0.0069055,-0.00199587,0,0,0.0453582,-0.0214192,0,-0.0103785,0,0,0,0.0245051,-0.00148682,0.0069055,-4.41711,0.0099746,0.0229756,3.54399e-07,0.52,0.54,0
0.026728,0.000518578,0.0229068,-0.00114301,0.00652914,-0.00157215,0,0,0.042582,-0.0199476,0,-0.00817519,0,0,0,0.0230092,-0.00124534,0.00652914,-3.72434,0.00943099,0.0214513,2.91673e-07,0.54,0.54,0
0.0275617,0.000557229,0.0222557,-0.0011177,0.00634141,-0.000919802,0,0,0.0413772,-0.0193937,0,-0.00478297,0,0,0,0.0222919,-0.00115384,0.00634141,-2.25009,0.00915981,0.02074,2.64672e-07,0.56,0.54,0
0.0283831,0.00058056,0.0220357,-0.00114662,0.00626673,-0.000284957,0,0,0.0409994,-0.0192747,0,-0.00148178,0,0,0,0.0220392,-0.00115012,0.00626673,-0.704138,0.00905194,0.0205125,2.55873e-07,0.58,0.54,0
0.0292017,0.00059202,0.0220075,-0.00125738,0.00622504,0.000332558,0,0,0.0410344,-0.0194543,0,0.0017293,0,0,0,0.0220123,-0.00126213,0.00622504,0.818787,0.00899172,0.020579,2.56115e-07,0.6,0.54,0
0.0300245,0.00059124,0.0221737,-0.0014536,0.00621602,0.000963731,0,0,0.0414899,-0.019941,0,0.0050114,0,0,0,0.0222129,-0.00149284,0.00621602,2.33187,0.0089787,0.0209439,2.6546e-07,0.62,0.54,0
0.0308613,0.000573972,0.0227856,-0.00171226,0.00632201,0.00160465,0,0,0.0428054,-0.0208891,0,0.0083442,0,0,0,0.0228903,-0.00181692,0.00632201,3.73172,0.00913179,0.0218082,2.93471e-07,0.64,0.54,0
0.0317367,0.000523159,0.0241995,-0.00216631,0.00660994,0.00199637,0,0,0.0457327,-0.0228183,0,0.0103811,0,0,0,0.0243498,-0.00231662,0.00660994,4.30561,0.0095477,0.0235104,3.57717e-07,0.66,0.54,0
0.0326906,0.000363943,0.0252917,-0.00247464,0.00684512,0.00234277,0,0,0.0479611,-0.0242314,0,0.0121824,0,0,0,0.025488,-0.00267092,0.00684512,4.78919,0.00988739,0.0248096,4.13266e-07,0.68,0.54,0
0.0336552,0.000148632,0.0265404,-0.00187448,0.00739977,0.00151711,0,0,0.0497656,-0.0241131,0,0.00788899,0,0,0,0.0266212,-0.00195525,0.00739977,3.04756,0.0106886,0.0252348,4.59367e-07,0.7,0.54,0
0.0346813,-4.8941e-05,0.028005,-0.000900258,0.00813141,0.00127073,0,0,0.0516712,-0.0234823,0,0.00660779,0,0,0,0.0280607,-0.000956014,0.00813141,2.51237,0.0117454,0.0257073,5.19267e-07,0.72,0.54,0
0.035722,-0.000247541,0.0286053,-0.000381422,0.00846715,0.00098435,0,0,0.0523591,-0.0230063,0,0.00511862,0,0,0,0.0286386,-0.000414811,0.00846715,1.94271,0.0122303,0.0257864,5.41379e-07,0.74,0.54,0
0.0367756,-0.000432113,0.0291024,0.000177453,0.00878396,0.000865913,0,0,0.052828,-0.0223769,0,0.00450275,0,0,0,0.0291283,0.000151554,0.00878396,1.71319,0.0126879,0.0257688,5.57894e-07,0.76,0.54,0
0.0378351,-0.000598411,0.0294436,0.000567761,0.00900342,0.000830754,0,0,0.0531446,-0.0219327,0,0.00431992,0,0,0,0.0294675,0.000543881,0.00900342,1.64657,0.0130049,0.0257577,5.69164e-07,0.78,0.54,0
0.0389014,-0.000740178,0.0297496,0.000817156,0.00917004,0.000859955,0,0,0.053507,-0.0217175,0,0.00447177,0,0,0,0.0297752,0.000791618,0.00917004,1.70099,0.0132456,0.0258342,5.81726e-07,0.8,0.54,0
0.0399754,-0.000856085,0.0300255,0.000914103,0.00928188,0.000896379,0,0,0.0539334,-0.0217562,0,0.00466117,0,0,0,0.0300531,0.000886528,0.00928188,1.76199,0.0134072,0.0260059,5.96138e-07,0.82,0.54,0
0.0410587,-0.000947408,0.0302851,0.000907618,0.00935782,0.00090933,0,0,0.054411,-0.0219705,0,0.00472852,0,0,0,0.0303132,0.000879499,0.00935782,1.77123,0.0135168,0.0262427,6.12101e-07,0.84,0.54,0
0.0421519,-0.00101746,0.0305203,0.000838976,0.0094078,0.000884153,0,0,0.0548926,-0.0222789,0,0.0045976,0,0,0,0.0305467,0.000812662,0.0094078,1.70472,0.013589,0.0265032,6.28113e-07,0.86,0.54,0
0.0432544,-0.00107002,0.0307254,0.000742241,0.00944029,0.000821233,0,0,0.0553412,-0.0226149,0,0.00427041,0,0,0,0.0307479,0.000719764,0.00944029,1.56776,0.013636,0.0267558,6.42977e-07,0.88,0.54,0
0.0443655,-0.00110866,0.0308964,0.000638722,0.00946052,0.000726521,0,0,0.0557332,-0.0229367,0,0.00377791,0,0,0,0.0309138,0.000621287,0.00946052,1.37468,0.0136652,0.0269816,6.55925e-07,0.9,0.54,0
0.0454838,-0.00113641,0.0310329,0.000541873,0.00947245,0.000607169,0,0,0.0560573,-0.0232195,0,0.00315728,0,0,0,0.031045,0.000529787,0.00947245,1.14033,0.0136824,0.027171,6.66603e-07,0.92,0.54,0
0.0466078,-0.00115564,0.0311365,0.000460176,0.00947901,0.000469691,0,0,0.0563095,-0.023449,0,0.00244239,0,0,0,0.0311437,0.000452986,0.00947901,0.876991,0.0136919,0.0273199,6.7489e-07,0.94,0.54,0
0.0477361,-0.00116814,0.0312089,0.000398864,0.00948232,0.000319638,0,0,0.056489,-0.023617,0,0.00166212,0,0,0,0.0312122,0.000395548,0.00948232,0.594329,0.0136967,0.0274265,6.80774e-07,0.96,0.54,0
0.0488674,-0.00117517,0.0312516,0.000361018,0.00948378,0.00016171,0,0,0.0565963,-0.0237192,0,0.000840893,0,0,0,0.0312524,0.000360171,0.00948378,0.299929,0.0136988,0.0274904,6.84285e-07,0.98,0.54,0
0.05,-0.00117743,0.0312657,0.000348238,0.00948418,-2.1747e-05,0,0,0.056632,-0.0237535,0,-0.000113085,0,0,0,0.0312657,0.000348223,0.00948418,-0.0403012,0.0136994,0.0275118,6.85452e-07,1,0.54,0
0,0,0.0284211,0.0121805,0.0121805,-0.00151276,0,0,0.0422256,0,0,-0.00786637,0,0,0,0.0285608,0.0120408,0.0121805,-5.27644,0.017594,0.0164506,2.28595e-07,0,0.56,0
0.000844512,-0.000157327,0.028347,0.0113281,0.0119025,-0.00151097,0,0,0.0427556,-0.0014935,0,-0.00785705,0,0,0,0.0284801,0.011195,0.0119025,-5.03436,0.0171926,0.0169424,2.48308e-07,0.02,0.56,0
0.00171023,-0.000302935,0.0286274,0.0106336,0.0117783,-0.00146517,0,0,0.0438076,-0.00297619,0,-0.00761887,0,0,0,0.0287459,0.0105151,0.0117783,-4.62479,0.0170131,0.0176332,2.76721e-07,0.04,0.56,0
0.00259682,-0.000438063,0.0289001,0.00994966,0.0116549,-0.00143511,0,0,0.0448375,-0.00443371,0,-0.0074626,0,0,0,0.0290082,0.00984159,0.0116549,-4.30627,0.0168349,0.0183273,3.05757e-07,0.06,0.56,0
0.00350372,-0.000563591,0.0291613,0.00928201,0.011533,-0.00141716,0,0,0.0458337,-0.00585259,0,-0.00736926,0,0,0,0.0292619,0.00918149,0.011533,-4.05718,0.0166588,0.019014,3.3492e-07,0.08,0.56,0
0.00443016,-0.000680096,0.0294073,0.00863603,0.011413,-0.00140844,0,0,0.0467851,-0.00722009,0,-0.00732391,0,0,0,0.0295023,0.00854096,0.011413,-3.86152,0.0164854,0.0196831,3.63705e-07,0.1,0.56,0
0.00537513,-0.000787894,0.0296342,0.00801674,0.0112953,-0.00140669,0,0,0.0476812,-0.0085242,0,-0.0073148,0,0,0,0.0297253,0.00792559,0.0112953,-3.70752,0.0163154,0.0203255,3.91609e-07,0.12,0.56,0
0.00633741,-0.000887075,0.0298385,0.00742868,0.0111801,-0.00141009,0,0,0.0485116,-0.00975381,0,-0.00733247,0,0,0,0.0299269,0.0073403,0.0111801,-3.58637,0.0161491,0.0209325,4.18138e-07,0.14,0.56,0
0.0073156,-0.00097752,0.0300165,0.00687583,0.0110677,-0.00141708,0,0,0.0492669,-0.0108989,0,-0.00736882,0,0,0,0.030103,0.00678937,0.0110677,-3.49127,0.0159867,0.0214962,4.42809e-07,0.16,0.56,0
0.00830809,-0.00105891,0.0301649,0.00636148,0.0109579,-0.00142615,0,0,0.0499381,-0.0119507,0,-0.00741601,0,0,0,0.03025,0.00627634,0.0109579,-3.41653,0.0158281,0.0220095,4.65169e-07,0.18,0.56,0
0.00931312,-0.00113073,0.03028,0.00588804,0.0108504,-0.00143565,0,0,0.0505169,-0.0129022,0,-0.00746537,0,0,0,0.0303642,0.00580384,0.0108504,-3.35683,0.0156728,0.0224663,4.84796e-07,0.2,0.56,0
0.0103288,-0.00119224,0.0303586,0.00545686,0.0107446,-0.00144351,0,0,0.0509963,-0.0137482,0,-0.00750623,0,0,0,0.030442,0.00537346,0.0107446,-3.30657,0.01552,0.0228612,5.01318e-07,0.22,0.56,0
0.011353,-0.00124243,0.0303973,0.00506788,0.0106396,-0.00144706,0,0,0.0513702,-0.0144864,0,-0.00752471,0,0,0,0.0304797,0.00498548,0.0106396,-3.25914,0.0153683,0.0231901,5.14425e-07,0.24,0.56,0
0.0123836,-0.00128001,0.0303933,0.00471922,0.0105338,-0.0014428,0,0,0.0516349,-0.0151178,0,-0.00750257,0,0,0,0.0304742,0.00463839,0.0105338,-3.20638,0.0152154,0.0234506,5.23893e-07,0.26,0.56,0
0.0134184,-0.00130333,0.0303442,0.00440652,0.0104252,-0.00142627,0,0,0.0517893,-0.0156486,0,-0.00741661,0,0,0,0.0304223,0.00432833,0.0104252,-3.138,0.0150586,0.0236427,5.29626e-07,0.28,0.56,0
0.0144551,-0.00131037,0.0302486,0.00412193,0.0103112,-0.00139216,0,0,0.0518373,-0.016092,0,-0.00723926,0,0,0,0.0303226,0.00404796,0.0103112,-3.04154,0.0148939,0.0237701,5.31716e-07,0.3,0.56,0
0.0154919,-0.00129873,0.0301073,0.00385271,0.010188,-0.00133508,0,0,0.0517902,-0.0164718,0,-0.00694241,0,0,0,0.030175,0.003785,0.010188,-2.90358,0.014716,0.0238423,5.30528e-07,0.32,0.56,0
0.0165268,-0.00126574,0.0299229,0.00357945,0.0100507,-0.0012513,0,0,0.0516678,-0.0168253,0,-0.00650676,0,0,0,0.0299822,0.00352015,0.0100507,-2.71337,0.0145177,0.0238763,5.26753e-07,0.34,0.56,0
0.0175586,-0.00120878,0.0296997,0.00327622,0.00989276,-0.00114229,0,0,0.0514979,-0.017203,0,-0.00593989,0,0,0,0.029749,0.00322693,0.00989276,-2.47075,0.0142895,0.0238969,5.21369e-07,0.36,0.56,0
0.0185867,-0.00112585,0.0294376,0.00291185,0.00970482,-0.00101753,0,0,0.0513051,-0.0176617,0,-0.00529113,0,0,0,0.0294765,0.00287288,0.00970482,-2.19357,0.0140181,0.0239306,5.15251e-07,0.38,0.56,0
0.0196108,-0.00101619,0.029133,0.0024649,0.00947936,-0.000897588,0,0,0.0510994,-0.0182376,0,-0.00466746,0,0,0,0.0291631,0.00243472,0.00947936,-1.92554,0.0136924,0.0239947,5.08764e-07,0.4,0.56,0
0.0206306,-0.000881217,0.0287572,0.00191905,0.00920286,-0.000802158,0,0,0.0508412,-0.0189379,0,-0.00417122,0,0,0,0.0287811,0.00189509,0.00920286,-1.71047,0.013293,0.0240787,5.00638e-07,0.42,0.56,0
0.0216444,-0.000723719,0.0282988,0.00131069,0.00888285,-0.000754542,0,0,0.0504815,-0.0196876,0,-0.00392362,0,0,0,0.0283199,0.00128961,0.00888285,-1.60023,0.0128308,0.0241463,4.89333e-07,0.44,0.56,0
0.0226499,-0.00054926,0.0276512,0.000593986,0.00847356,-0.000718836,0,0,0.0498619,-0.0204869,0,-0.00373795,0,0,0,0.0276703,0.000574902,0.00847356,-1.52076,0.0122396,0.0241357,4.70004e-07,0.46,0.56,0
0.0236389,-0.000359459,0.0270566,-2.3264e-05,0.00811,-0.000724084,0,0,0.0492612,-0.0211465,0,-0.00376524,0,0,0,0.027076,-4.26114e-05,0.00811,-1.53057,0.0117144,0.0240997,4.51368e-07,0.48,0.56,0
0.0246204,-0.000169376,0.0262517,-0.00110769,0.00754321,-0.000694005,0,0,0.0486421,-0.0224923,0,-0.00360883,0,0,0,0.0262693,-0.00112528,0.00754321,-1.45213,0.0108957,0.0242515,4.29585e-07,0.5,0.56,0
0.0255846,-1.2921e-05,0.0254138,-0.00188249,0.00705939,-0.000909468,0,0,0.0477214,-0.0232489,0,-0.00472923,0,0,0,0.025444,-0.00191275,0.00705939,-1.90619,0.0101969,0.0241546,4.01665e-07,0.52,0.56,0
0.0265292,8.75447e-05,0.0248128,-0.00168779,0.00693749,-0.000874774,0,0,0.0464757,-0.0224257,0,-0.00454882,0,0,0,0.0248416,-0.00171663,0.00693749,-1.88857,0.0100208,0.0234605,3.71899e-07,0.54,0.56,0
0.0274436,0.000141593,0.0241915,-0.00161319,0.00677351,-0.000588477,0,0,0.0452869,-0.0218054,0,-0.00306008,0,0,0,0.024205,-0.0016266,0.00677351,-1.30573,0.00978395,0.022822,3.43473e-07,0.56,0.56,0
0.0283407,0.000169371,0.023878,-0.00163849,0.00667186,-0.000170948,0,0,0.044736,-0.0216069,0,-0.000888927,0,0,0,0.0238792,-0.00163964,0.00667186,-0.383829,0.00963713,0.0225431,3.30203e-07,0.58,0.56,0
0.0292331,0.000177218,0.0238559,-0.00174632,0.00663288,0.00027071,0,0,0.0447799,-0.0217859,0,0.00140769,0,0,0,0.0238588,-0.00174918,0.00663288,0.605737,0.00958082,0.0226137,3.30655e-07,0.6,0.56,0
0.0301319,0.000164615,0.0241287,-0.00193887,0.00665694,0.000679311,0,0,0.0454265,-0.0223491,0,0.00353242,0,0,0,0.0241464,-0.00195656,0.00665694,1.49176,0.00961558,0.0230373,3.44948e-07,0.62,0.56,0
0.0310501,0.000123976,0.0247153,-0.00224019,0.00674254,0.000943397,0,0,0.0467292,-0.0233551,0,0.00490567,0,0,0,0.0247483,-0.00227317,0.00674254,2.00199,0.00973922,0.0238291,3.74614e-07,0.64,0.56,0
0.032001,3.33776e-05,0.0252836,-0.00266872,0.00678445,0.000934478,0,0,0.0480977,-0.0245783,0,0.00485928,0,0,0,0.0253148,-0.00269993,0.00678445,1.91262,0.00979976,0.0246794,4.05455e-07,0.66,0.56,0
0.032974,-0.000118747,0.0260912,-0.00210335,0.00719636,0.000654689,0,0,0.0491266,-0.0241792,0,0.00340438,0,0,0,0.0261064,-0.00211854,0.00719636,1.32948,0.0103947,0.0249099,4.35997e-07,0.68,0.56,0
0.0339661,-0.000310968,0.026872,-0.00119001,0.00770459,0.000615927,0,0,0.0498352,-0.023126,0,0.00320282,0,0,0,0.0268855,-0.00120353,0.00770459,1.25677,0.0111288,0.0248621,4.61356e-07,0.7,0.56,0
0.0349674,-0.00050889,0.0274404,-0.000749673,0.00800723,0.00054556,0,0,0.0505264,-0.022768,0,0.00283691,0,0,0,0.027451,-0.000760227,0.00800723,1.10829,0.011566,0.025008,4.83144e-07,0.72,0.56,0
0.0359872,-0.000696951,0.0280684,-0.000218266,0.00835504,0.000514643,0,0,0.0512548,-0.0222906,0,0.00267614,0,0,0,0.0280778,-0.000227626,0.00835504,1.04197,0.0120684,0.0251381,5.06833e-07,0.74,0.56,0
0.0370176,-0.000873317,0.0285163,0.000197365,0.0086141,0.000494851,0,0,0.0517457,-0.0218835,0,0.00257323,0,0,0,0.0285249,0.00018872,0.0086141,1.00079,0.0124426,0.0252029,5.2313e-07,0.76,0.56,0
0.038057,-0.00103225,0.0288899,0.000535897,0.00882773,0.000521824,0,0,0.0521616,-0.0215588,0,0.00271349,0,0,0,0.0288995,0.000526297,0.00882773,1.05399,0.0127512,0.0252668,5.37028e-07,0.78,0.56,0
0.0391041,-0.00117071,0.0292034,0.000757025,0.00898814,0.000572336,0,0,0.0525598,-0.0214009,0,0.00297615,0,0,0,0.0292149,0.000745514,0.00898814,1.15216,0.0129829,0.0253729,5.50184e-07,0.8,0.56,0
0.0401594,-0.00128712,0.0294873,0.000872361,0.00910789,0.000625449,0,0,0.0529864,-0.0214124,0,0.00325234,0,0,0,0.0295009,0.000858697,0.00910789,1.25154,0.0131558,0.0255373,5.64139e-07,0.82,0.56,0
0.0412235,-0.00138209,0.0297466,0.000900422,0.0091941,0.000659094,0,0,0.0534365,-0.0215636,0,0.00342729,0,0,0,0.0297616,0.00088537,0.0091941,1.30822,0.0132804,0.0257478,5.78793e-07,0.84,0.56,0
0.0422968,-0.0014576,0.029982,0.000870442,0.00925573,0.00066215,0,0,0.0538883,-0.0218018,0,0.00344318,0,0,0,0.0299971,0.000855389,0.00925573,1.30231,0.0133694,0.0259808,5.93492e-07,0.86,0.56,0
0.0433791,-0.00151632,0.0301894,0.000807633,0.00929912,0.000631876,0,0,0.0543148,-0.0220779,0,0.00328575,0,0,0,0.030203,0.00079405,0.00929912,1.23143,0.0134321,0.0262126,6.07373e-07,0.88,0.56,0
0.0444694,-0.001561,0.0303657,0.000731564,0.00932919,0.000571192,0,0,0.054695,-0.0223538,0,0.0029702,0,0,0,0.0303768,0.000720558,0.00932919,1.10382,0.0134755,0.0264254,6.19753e-07,0.9,0.56,0
0.0455669,-0.00159413,0.0305093,0.000655797,0.00934953,0.000485335,0,0,0.0550154,-0.0226037,0,0.00252374,0,0,0,0.0305172,0.000647908,0.00934953,0.931141,0.0135049,0.0266079,6.30185e-07,0.92,0.56,0
0.0466701,-0.00161777,0.0306199,0.000589461,0.0093628,0.000380048,0,0,0.0552684,-0.0228107,0,0.00197625,0,0,0,0.0306247,0.000584652,0.0093628,0.724948,0.013524,0.0267538,6.38424e-07,0.94,0.56,0
0.0477776,-0.00163353,0.0306981,0.000538512,0.00937097,0.000260799,0,0,0.0554504,-0.0229644,0,0.00135616,0,0,0,0.0307003,0.000536257,0.00937097,0.495406,0.0135358,0.0268595,6.4435e-07,0.96,0.56,0
0.0488881,-0.00164254,0.0307446,0.000506625,0.00937536,0.000132585,0,0,0.05556,-0.0230587,0,0.000689445,0,0,0,0.0307452,0.000506044,0.00937536,0.25122,0.0135422,0.0269234,6.47915e-07,0.98,0.56,0
0.05,-0.00164547,0.03076,0.000495788,0.00937675,-2.8169e-05,0,0,0.0555965,-0.0230905,0,-0.000146479,0,0,0,0.0307601,0.000495762,0.00937675,-0.0533291,0.0135442,0.0269448,6.49107e-07,1,0.56,0
0,0,0.0282319,0.0120994,0.0120994,-0.00179525,0,0,0.0419445,4.87891e-19,0,-0.00933531,0,0,0,0.0284293,0.011902,0.0120994,-6.27371,0.0174769,0.0164294,2.27658e-07,0,0.58,0
0.000838891,-0.000186706,0.0281605,0.0112725,0.0118299,-0.00179139,0,0,0.0424596,-0.00144932,0,-0.00931522,0,0,0,0.0283484,0.0110845,0.0118299,-5.98882,0.0170876,0.0169036,2.46435e-07,0.02,0.58,0
0.00169838,-0.000361574,0.0284322,0.0105933,0.0117076,-0.0017401,0,0,0.0434838,-0.00289731,0,-0.00904853,0,0,0,0.0286003,0.0104251,0.0117076,-5.51961,0.016911,0.0175691,2.7353e-07,0.04,0.58,0
0.00257824,-0.000525533,0.0286964,0.00992073,0.0115851,-0.00170035,0,0,0.0444892,-0.00432745,0,-0.00884181,0,0,0,0.0288491,0.00976799,0.0115851,-5.13314,0.0167341,0.0182406,3.01295e-07,0.06,0.58,0
0.00347795,-0.000679174,0.0289487,0.00926135,0.011463,-0.00166864,0,0,0.0454628,-0.00572432,0,-0.00867693,0,0,0,0.0290891,0.00912092,0.011463,-4.81049,0.0165577,0.0189063,3.29201e-07,0.08,0.58,0
0.00439675,-0.000822801,0.0291849,0.00862124,0.0113418,-0.00164223,0,0,0.046392,-0.00707357,0,-0.0085396,0,0,0,0.0293152,0.00849091,0.0113418,-4.53736,0.0163827,0.0195553,3.56713e-07,0.1,0.58,0
0.00533363,-0.000956479,0.0294009,0.00800593,0.0112221,-0.00161898,0,0,0.0472651,-0.00836195,0,-0.00841868,0,0,0,0.0295228,0.00788411,0.0112221,-4.30296,0.0162096,0.0201778,3.83302e-07,0.12,0.58,0
0.00628736,-0.00108007,0.029593,0.00742033,0.011104,-0.00159719,0,0,0.0480713,-0.0095775,0,-0.00830539,0,0,0,0.0297074,0.00730587,0.011104,-4.09906,0.0160391,0.0207647,4.08457e-07,0.14,0.58,0
0.00725649,-0.00119324,0.0297573,0.00686862,0.0109878,-0.00157545,0,0,0.0488007,-0.0107098,0,-0.00819235,0,0,0,0.0298652,0.00676069,0.0109878,-3.9191,0.0158712,0.0213078,4.3169e-07,0.16,0.58,0
0.00823939,-0.00129551,0.0298905,0.00635404,0.0108734,-0.00155241,0,0,0.0494445,-0.0117502,0,-0.00807252,0,0,0,0.0299924,0.00625209,0.0108734,-3.7574,0.015706,0.0218002,4.52559e-07,0.18,0.58,0
0.00923427,-0.00138622,0.0299894,0.00587876,0.0107604,-0.00152655,0,0,0.0499952,-0.0126923,0,-0.00793808,0,0,0,0.0300856,0.00578249,0.0107604,-3.60845,0.0155428,0.0222361,4.70674e-07,0.2,0.58,0
0.0102392,-0.00146453,0.030051,0.00544365,0.0106484,-0.00149604,0,0,0.0504468,-0.0135324,0,-0.0077794,0,0,0,0.0301416,0.00535303,0.0106484,-3.46636,0.015381,0.0226109,4.85713e-07,0.22,0.58,0
0.0112521,-0.00152942,0.030073,0.005048,0.0105363,-0.00145848,0,0,0.0507955,-0.0142696,0,-0.00758408,0,0,0,0.0301577,0.00496329,0.0105363,-3.32424,0.0152191,0.0229218,4.97447e-07,0.24,0.58,0
0.012271,-0.00157964,0.0300534,0.00468912,0.0104228,-0.00141084,0,0,0.0510398,-0.0149075,0,-0.00733635,0,0,0,0.0301317,0.00461088,0.0104228,-3.17391,0.0150551,0.0231682,5.05754e-07,0.26,0.58,0
0.0132937,-0.00161369,0.0299913,0.0043618,0.0103059,-0.00134947,0,0,0.0511819,-0.0154547,0,-0.00701723,0,0,0,0.0300621,0.00429094,0.0103059,-3.00572,0.0148863,0.0233521,5.1066e-07,0.28,0.58,0
0.0143183,-0.00162984,0.0298866,0.00405764,0.0101833,-0.00127042,0,0,0.0512287,-0.0159267,0,-0.0066062,0,0,0,0.029949,0.0039953,0.0101833,-2.80911,0.0147092,0.0234794,5.12378e-07,0.3,0.58,0
0.0153429,-0.00162619,0.0297412,0.00376424,0.0100516,-0.00117024,0,0,0.0511928,-0.0163472,0,-0.00608523,0,0,0,0.0297938,0.00371163,0.0100516,-2.57417,0.014519,0.0235609,5.11339e-07,0.32,0.58,0
0.016366,-0.00160075,0.0295579,0.00346492,0.00990683,-0.00104737,0,0,0.0510927,-0.016749,0,-0.00544631,0,0,0,0.0295998,0.00342295,0.00990683,-2.29493,0.0143099,0.0236123,5.08187e-07,0.34,0.58,0
0.0173866,-0.0015518,0.0293396,0.00313925,0.00974365,-0.000903884,0,0,0.0509494,-0.0171714,0,-0.0047002,0,0,0,0.0293707,0.00310811,0.00974365,-1.97352,0.0140742,0.0236535,5.03667e-07,0.36,0.58,0
0.018404,-0.00147817,0.0290881,0.00276688,0.00955649,-0.000747002,0,0,0.0507822,-0.017653,0,-0.00388441,0,0,0,0.0291093,0.00274569,0.00955649,-1.62432,0.0138038,0.0237038,4.98429e-07,0.38,0.58,0
0.0194179,-0.0013798,0.0287995,0.00233047,0.00933899,-0.000587389,0,0,0.0505973,-0.0182222,0,-0.00305442,0,0,0,0.0288125,0.00231744,0.00933899,-1.27065,0.0134897,0.0237751,4.92671e-07,0.4,0.58,0
0.0204279,-0.00125787,0.0284704,0.00182645,0.00908904,-0.000437363,0,0,0.0503914,-0.0188827,0,-0.00227429,0,0,0,0.0284775,0.00181927,0.00908904,-0.94018,0.0131286,0.0238687,4.86195e-07,0.42,0.58,0
0.0214335,-0.00111525,0.028087,0.00124827,0.00880057,-0.000298619,0,0,0.0501446,-0.019636,0,-0.00155282,0,0,0,0.0280903,0.00124494,0.00880057,-0.637393,0.0127119,0.0239776,4.78241e-07,0.44,0.58,0
0.0224337,-0.000955642,0.0276913,0.00062406,0.0084946,-0.000177712,0,0,0.0499114,-0.0204634,0,-0.0009241,0,0,0,0.0276924,0.000622893,0.0084946,-0.376157,0.01227,0.0241172,4.70209e-07,0.46,0.58,0
0.02343,-0.000786459,0.0272647,-0.000137862,0.00813804,-7.7455e-05,0,0,0.0497292,-0.0215173,0,-0.000402766,0,0,0,0.0272649,-0.000138081,0.00813804,-0.161949,0.0117549,0.0243439,4.62593e-07,0.48,0.58,0
0.0244228,-0.000621449,0.026807,-0.00098882,0.00774545,-9.54321e-05,0,0,0.04956,-0.0227091,0,-0.000496247,0,0,0,0.0268073,-0.000989147,0.00774545,-0.196712,0.0111879,0.02462,4.53973e-07,0.5,0.58,0
0.0254124,-0.000480639,0.0263424,-0.0016354,0.00741211,-0.000194489,0,0,0.0492188,-0.0235235,0,-0.00101134,0,0,0,0.0263438,-0.00163675,0.00741211,-0.398268,0.0107064,0.0247306,4.40868e-07,0.52,0.58,0
0.0263916,-0.000378452,0.0259068,-0.00189492,0.00720357,-0.000280994,0,0,0.0486285,-0.0236561,0,-0.00146117,0,0,0,0.0259097,-0.00189776,0.00720357,-0.579014,0.0104052,0.0245561,4.23439e-07,0.54,0.58,0
0.0273575,-0.000314987,0.0255521,-0.00192892,0.00708695,-0.000217126,0,0,0.0480093,-0.0234413,0,-0.00112905,0,0,0,0.0255538,-0.00193064,0.00708695,-0.452653,0.0102367,0.0242666,4.07013e-07,0.56,0.58,0
0.028312,-0.000283717,0.0253216,-0.00198256,0.0070017,-3.71019e-05,0,0,0.0476317,-0.0233591,0,-0.00019293,0,0,0,0.0253216,-0.00198261,0.0070017,-0.0778554,0.0101136,0.0241025,3.9692e-07,0.58,0.58,0
0.0292628,-0.000279416,0.0253026,-0.00208566,0.00696507,0.000180039,0,0,0.0476775,-0.0235319,0,0.000936201,0,0,0,0.0253037,-0.00208685,0.00696507,0.376617,0.0100607,0.0241711,3.97431e-07,0.6,0.58,0
0.0302191,-0.000302724,0.0254961,-0.00223984,0.00697687,0.000346875,0,0,0.0481499,-0.0239634,0,0.00180375,0,0,0,0.0255004,-0.00224418,0.00697687,0.716413,0.0100777,0.0244736,4.08578e-07,0.62,0.58,0
0.0311888,-0.000360232,0.0258156,-0.00241644,0.00701976,0.000381841,0,0,0.0488693,-0.0245341,0,0.00198558,0,0,0,0.0258208,-0.00242161,0.00701976,0.774742,0.0101396,0.0249023,4.26099e-07,0.64,0.58,0
0.0321738,-0.000459971,0.0262169,-0.00236463,0.00715568,0.000248568,0,0,0.0495591,-0.0247528,0,0.00129256,0,0,0,0.026219,-0.00236679,0.00715568,0.498241,0.010336,0.0252115,4.44898e-07,0.66,0.58,0
0.0331712,-0.000603226,0.0266478,-0.0019116,0.00742087,8.7838e-05,0,0,0.0499901,-0.0242644,0,0.000456758,0,0,0,0.0266481,-0.00191187,0.00742087,0.176218,0.010719,0.0252236,4.60105e-07,0.68,0.58,0
0.0341734,-0.000776407,0.027073,-0.00123864,0.00775032,9.37818e-07,0,0,0.0502391,-0.0233713,0,4.87666e-06,0,0,0,0.027073,-0.00123864,0.00775032,0.00189791,0.0111949,0.0250571,4.7151e-07,0.7,0.58,0
0.0351807,-0.000959659,0.0274687,-0.000652045,0.008045,3.01417e-05,0,0,0.0505017,-0.0226123,0,0.000156737,0,0,0,0.0274688,-0.000652077,0.008045,0.0614133,0.0116206,0.0249369,4.82193e-07,0.72,0.58,0
0.0361935,-0.00113917,0.0278378,-0.000209509,0.0082885,7.83696e-05,0,0,0.0508283,-0.0220948,0,0.000407522,0,0,0,0.027838,-0.000209728,0.0082885,0.160094,0.0119723,0.0249107,4.93666e-07,0.74,0.58,0
0.0372138,-0.00130745,0.0282019,0.000176814,0.00851361,0.00014181,0,0,0.0511895,-0.0216757,0,0.000737414,0,0,0,0.0282026,0.000176097,0.00851361,0.289914,0.0122974,0.0249264,5.058e-07,0.76,0.58,0
0.0382411,-0.00146076,0.0285206,0.000475269,0.00869875,0.000213845,0,0,0.0515367,-0.0213811,0,0.00111199,0,0,0,0.0285222,0.000473638,0.00869875,0.436846,0.0125649,0.0249734,5.17208e-07,0.78,0.58,0
0.0392753,-0.00159621,0.0288088,0.000687935,0.00884903,0.000292333,0,0,0.0518955,-0.0212188,0,0.00152013,0,0,0,0.0288119,0.000684897,0.00884903,0.595537,0.0127819,0.0250629,5.2879e-07,0.8,0.58,0
0.0403169,-0.00171258,0.0290717,0.000814836,0.00896597,0.000364281,0,0,0.052275,-0.0211929,0,0.00189426,0,0,0,0.0290764,0.000810141,0.00896597,0.73848,0.0129508,0.0251985,5.4092e-07,0.82,0.58,0
0.0413663,-0.00180995,0.0293143,0.000870292,0.00905537,0.000418028,0,0,0.0526731,-0.0212812,0,0.00217374,0,0,0,0.0293204,0.00086415,0.00905537,0.841807,0.01308,0.0253725,5.53609e-07,0.84,0.58,0
0.0424238,-0.00188953,0.0295355,0.000872645,0.00912245,0.000445396,0,0,0.053074,-0.0214495,0,0.00231606,0,0,0,0.0295424,0.000865726,0.00912245,0.890041,0.0131769,0.0255686,5.66393e-07,0.86,0.58,0
0.0434893,-0.00195313,0.0297328,0.000841134,0.00917217,0.000443597,0,0,0.0534576,-0.0216607,0,0.0023067,0,0,0,0.0297396,0.000834325,0.00917217,0.879432,0.0132487,0.0257687,5.78653e-07,0.88,0.58,0
0.0445621,-0.00200282,0.0299028,0.000792031,0.00920846,0.000413886,0,0,0.0538054,-0.0218827,0,0.00215221,0,0,0,0.0299087,0.000786147,0.00920846,0.81439,0.0133011,0.0259573,5.89794e-07,0.9,0.58,0
0.0456415,-0.00204055,0.0300434,0.000737926,0.00923439,0.000359978,0,0,0.0541034,-0.0220908,0,0.00187189,0,0,0,0.0300478,0.000733505,0.00923439,0.703661,0.0133386,0.0261227,5.99358e-07,0.92,0.58,0
0.0467263,-0.00206806,0.0301531,0.000687914,0.0092523,0.000286649,0,0,0.054342,-0.0222674,0,0.00149057,0,0,0,0.0301559,0.000685125,0.0092523,0.557326,0.0133644,0.0262572,6.0703e-07,0.94,0.58,0
0.0478152,-0.00208672,0.0302315,0.000648252,0.00926391,0.000198939,0,0,0.0545156,-0.0224007,0,0.00103448,0,0,0,0.0302328,0.000646914,0.00926391,0.385275,0.0133812,0.0263559,6.12615e-07,0.96,0.58,0
0.0489069,-0.00209752,0.0302784,0.000622968,0.00927042,0.000101798,0,0,0.0546208,-0.0224834,0,0.000529349,0,0,0,0.0302788,0.000622619,0.00927042,0.196675,0.0133906,0.0264161,6.16001e-07,0.98,0.58,0
0.05,-0.00210105,0.0302941,0.000614301,0.00927251,-3.39657e-05,0,0,0.0546561,-0.0225114,0,-0.000176622,0,0,0,0.0302941,0.000614262,0.00927251,-0.0655695,0.0133936,0.0264364,6.17139e-07,1,0.58,0
0,0,0.0280497,0.0120213,0.0120213,-0.00207019,0,0,0.0416739,2.71051e-19,0,-0.010765,0,0,0,0.0283128,0.0117583,0.0120213,-7.24188,0.0173641,0.0164246,2.2737e-07,0,0.6,0
0.000833478,-0.0002153,0.0279805,0.0112138,0.0117583,-0.00206418,0,0,0.0421778,-0.00141567,0,-0.0107337,0,0,0,0.0282309,0.0109634,0.0117583,-6.91621,0.0169842,0.0168841,2.45358e-07,0.02,0.6,0
0.00168711,-0.000418828,0.0282456,0.0105454,0.0116373,-0.00200785,0,0,0.0431816,-0.00283893,0,-0.0104408,0,0,0,0.0284705,0.0103205,0.0116373,-6.39124,0.0168095,0.0175288,2.71358e-07,0.04,0.6,0
0.00256074,-0.000611161,0.0285035,0.0098799,0.011515,-0.0019583,0,0,0.0441701,-0.00425133,0,-0.0101832,0,0,0,0.0287072,0.00967621,0.011515,-5.93821,0.0166328,0.0181815,2.98061e-07,0.06,0.6,0
0.00345392,-0.000792564,0.0287493,0.00922461,0.0113922,-0.00191228,0,0,0.0451285,-0.00563566,0,-0.00994384,0,0,0,0.0289348,0.00903909,0.0113922,-5.54147,0.0164554,0.0188298,3.24912e-07,0.08,0.6,0
0.00436588,-0.000963039,0.0289784,0.00858634,0.0112694,-0.00186724,0,0,0.0460433,-0.006976,0,-0.00970965,0,0,0,0.0291479,0.00841677,0.0112694,-5.18891,0.016278,0.0194623,3.51355e-07,0.1,0.6,0
0.00529565,-0.00112237,0.0291864,0.00797118,0.0111473,-0.00182128,0,0,0.0469017,-0.00825784,0,-0.00947067,0,0,0,0.0293416,0.00781596,0.0111473,-4.87123,0.0161016,0.0200685,3.76843e-07,0.12,0.6,0
0.00624195,-0.00127017,0.0293694,0.00738445,0.0110261,-0.00177299,0,0,0.0476924,-0.00946841,0,-0.00921952,0,0,0,0.0295114,0.00724239,0.0110261,-4.58119,0.0159267,0.020639,4.00855e-07,0.14,0.6,0
0.00720334,-0.00140591,0.0295237,0.00683051,0.0109063,-0.00172122,0,0,0.0484053,-0.0105969,0,-0.00895037,0,0,0,0.0296535,0.0067007,0.0109063,-4.31288,0.0157535,0.0211657,4.22911e-07,0.16,0.6,0
0.00817816,-0.00152892,0.029646,0.0063126,0.0107876,-0.00166498,0,0,0.0490319,-0.011635,0,-0.00865791,0,0,0,0.0297642,0.00619439,0.0107876,-4.06098,0.0155821,0.0216419,4.42589e-07,0.18,0.6,0
0.00916462,-0.00163843,0.0297336,0.00583265,0.0106699,-0.00160313,0,0,0.0495657,-0.0125768,0,-0.00833629,0,0,0,0.0298407,0.0057256,0.0106699,-3.82025,0.0154121,0.0220624,4.59544e-07,0.2,0.6,0
0.0101608,-0.00173353,0.0297843,0.00539113,0.0105526,-0.00153427,0,0,0.0500024,-0.0134199,0,-0.00797818,0,0,0,0.0298804,0.00529501,0.0105526,-3.58492,0.0152427,0.0224238,4.73515e-07,0.22,0.6,0
0.0111647,-0.00181321,0.0297964,0.00498678,0.010435,-0.00145655,0,0,0.0503398,-0.0141653,0,-0.00757404,0,0,0,0.0298817,0.00490156,0.010435,-3.34844,0.0150727,0.0227244,4.84354e-07,0.24,0.6,0
0.0121744,-0.00187631,0.0297692,0.0046163,0.0103156,-0.00136768,0,0,0.0505792,-0.0148183,0,-0.00711194,0,0,0,0.0298433,0.00454215,0.0103156,-3.10325,0.0149004,0.0229653,4.92035e-07,0.26,0.6,0
0.0131879,-0.00192151,0.0297027,0.00427401,0.010193,-0.00126503,0,0,0.0507252,-0.0153894,0,-0.00657817,0,0,0,0.0297655,0.00421123,0.010193,-2.84101,0.0147233,0.0231504,4.96683e-07,0.28,0.6,0
0.0142034,-0.00194743,0.0295984,0.00395148,0.010065,-0.00114598,0,0,0.0507869,-0.0158951,0,-0.00595911,0,0,0,0.0296495,0.00390037,0.010065,-2.55337,0.0145383,0.0232871,4.98592e-07,0.3,0.6,0
0.0152194,-0.00195261,0.0294587,0.00363725,0.0099288,-0.0010086,0,0,0.0507779,-0.016358,0,-0.00524474,0,0,0,0.0294981,0.00359791,0.0099288,-2.23347,0.0143416,0.0233865,4.98225e-07,0.32,0.6,0
0.0162345,-0.0019357,0.0292873,0.00331704,0.00978129,-0.000852579,0,0,0.0507155,-0.0168071,0,-0.00443341,0,0,0,0.0293152,0.00328908,0.00978129,-1.87827,0.0141285,0.0234636,4.96185e-07,0.34,0.6,0
0.017248,-0.00189564,0.0290878,0.00297485,0.00961881,-0.000680179,0,0,0.0506195,-0.0172743,0,-0.00353693,0,0,0,0.0291055,0.00295714,0.00961881,-1.49107,0.0138938,0.0235356,4.93131e-07,0.36,0.6,0
0.0182593,-0.00183197,0.0288637,0.0025948,0.00943754,-0.000496541,0,0,0.0505079,-0.0177911,0,-0.00258201,0,0,0,0.028873,0.00258541,0.00943754,-1.0825,0.013632,0.0236192,4.89642e-07,0.38,0.6,0
0.0192683,-0.00174508,0.0286177,0.00216461,0.0092347,-0.000309269,0,0,0.0503959,-0.0183822,0,-0.0016082,0,0,0,0.0286213,0.002161,0.0092347,-0.669735,0.013339,0.0237279,4.86132e-07,0.4,0.6,0
0.0202751,-0.00163653,0.0283522,0.00167514,0.0090082,-0.000125962,0,0,0.0502944,-0.019066,0,-0.000655001,0,0,0,0.0283528,0.00167454,0.0090082,-0.270527,0.0130119,0.0238718,4.82812e-07,0.42,0.6,0
0.0212801,-0.00150916,0.0280787,0.0011251,0.00876113,4.41615e-05,0,0,0.0502256,-0.0198537,0,0.00022964,0,0,0,0.0280787,0.00112503,0.00876113,0.0938748,0.012655,0.0240622,4.80126e-07,0.44,0.6,0
0.0222841,-0.0013678,0.0278034,0.00049894,0.00849069,0.000189171,0,0,0.0502129,-0.0207785,0,0.000983691,0,0,0,0.0278047,0.000497629,0.00849069,0.396933,0.0122643,0.0243166,4.78448e-07,0.46,0.6,0
0.0232886,-0.00122015,0.027532,-0.000198646,0.00820002,0.000275031,0,0,0.0502633,-0.0218365,0,0.00143016,0,0,0,0.0275348,-0.000201374,0.00820002,0.56818,0.0118445,0.0246344,4.77596e-07,0.48,0.6,0
0.0242947,-0.00107774,0.0272548,-0.000909894,0.00790347,0.000276193,0,0,0.0503134,-0.0229147,0,0.0014362,0,0,0,0.0272575,-0.000912602,0.00790347,0.56179,0.0114161,0.0249585,4.7567e-07,0.5,0.6,0
0.0253011,-0.000953862,0.0269761,-0.00149246,0.0076451,0.000195183,0,0,0.0502607,-0.0237577,0,0.00101495,0,0,0,0.0269775,-0.0014938,0.0076451,0.3928,0.0110429,0.0251781,4.70635e-07,0.52,0.6,0
0.0263051,-0.000858699,0.026715,-0.0018503,0.00745941,0.000102551,0,0,0.0500646,-0.0242053,0,0.000533267,0,0,0,0.0267154,-0.00185067,0.00745941,0.205692,0.0107747,0.0252338,4.62629e-07,0.54,0.6,0
0.0273037,-0.000796057,0.0264938,-0.00203638,0.00733724,5.71158e-05,0,0,0.0498072,-0.0243714,0,0.000297002,0,0,0,0.026494,-0.00203649,0.00733724,0.114702,0.0105982,0.0251876,4.54105e-07,0.56,0.6,0
0.0282974,-0.000764993,0.0263581,-0.00214504,0.00726392,7.29328e-05,0,0,0.0496449,-0.0244633,0,0.000379251,0,0,0,0.0263583,-0.00214522,0.00726392,0.146605,0.0104923,0.0251553,4.48825e-07,0.58,0.6,0
0.0292895,-0.000764058,0.0263394,-0.00224183,0.00722926,0.000109098,0,0,0.0496862,-0.0246248,0,0.00056731,0,0,0,0.0263398,-0.00224224,0.00722926,0.218701,0.0104423,0.0252176,4.49235e-07,0.6,0.6,0
0.0302848,-0.000793922,0.0264378,-0.00232699,0.00723324,0.00010964,0,0,0.0499318,-0.0248566,0,0.000570127,0,0,0,0.0264382,-0.00232741,0.00723324,0.218384,0.010448,0.0253742,4.55343e-07,0.62,0.6,0
0.0312868,-0.000857389,0.0266219,-0.00233423,0.00728629,3.30043e-05,0,0,0.0502725,-0.0250133,0,0.000171622,0,0,0,0.0266219,-0.00233427,0.00728629,0.065306,0.0105246,0.0255429,4.64771e-07,0.64,0.6,0
0.0322957,-0.000956734,0.0268457,-0.00216584,0.00740397,-0.000106557,0,0,0.0505486,-0.0248815,0,-0.000554094,0,0,0,0.0268461,-0.00216623,0.00740397,-0.210438,0.0106946,0.0256057,4.73941e-07,0.66,0.6,0
0.0333087,-0.00108932,0.0270869,-0.001765,0.00759658,-0.000247674,0,0,0.0506749,-0.0243401,0,-0.0012879,0,0,0,0.0270891,-0.00176712,0.00759658,-0.491796,0.0109728,0.0254982,4.80647e-07,0.68,0.6,0
0.0343227,-0.00124582,0.027327,-0.00122821,0.00782965,-0.000315519,0,0,0.0506932,-0.0235504,0,-0.0016407,0,0,0,0.0273305,-0.0012317,0.00782965,-0.632982,0.0113095,0.0252804,4.84785e-07,0.7,0.6,0
0.0353365,-0.00141338,0.0275627,-0.000703786,0.00805767,-0.000304086,0,0,0.050713,-0.0227798,0,-0.00158125,0,0,0,0.027566,-0.000707057,0.00805767,-0.616284,0.0116389,0.0250675,4.88254e-07,0.72,0.6,0
0.0363513,-0.00158074,0.0278059,-0.000255887,0.00826501,-0.000237624,0,0,0.0508064,-0.0221543,0,-0.00123565,0,0,0,0.0278079,-0.000257899,0.00826501,-0.485128,0.0119383,0.0249224,4.92961e-07,0.74,0.6,0
0.0373687,-0.00174034,0.0280533,0.000105944,0.00844777,-0.000150092,0,0,0.0509743,-0.0216887,0,-0.00078048,0,0,0,0.0280541,0.000105138,0.00844777,-0.307697,0.0122023,0.0248511,4.99207e-07,0.76,0.6,0
0.0383902,-0.00188749,0.0283003,0.000393318,0.0086081,-5.37419e-05,0,0,0.0511998,-0.0213584,0,-0.000279458,0,0,0,0.0283004,0.000393215,0.0086081,-0.110337,0.0124339,0.0248403,5.06778e-07,0.78,0.6,0
0.0394167,-0.00201946,0.0285371,0.00060385,0.00874228,4.18629e-05,0,0,0.0514665,-0.0211599,0,0.000217687,0,0,0,0.0285371,0.000603787,0.00874228,0.0858677,0.0126277,0.0248832,5.1535e-07,0.8,0.6,0
0.0404489,-0.00213483,0.0287626,0.000743263,0.00885177,0.000128603,0,0,0.0517682,-0.0210821,0,0.000668736,0,0,0,0.0287632,0.000742673,0.00885177,0.262968,0.0127859,0.0249737,5.24872e-07,0.82,0.6,0
0.0414874,-0.00223334,0.0289751,0.000820999,0.00893884,0.000198297,0,0,0.0520943,-0.0211064,0,0.00103115,0,0,0,0.0289765,0.000819602,0.00893884,0.403523,0.0129117,0.0251022,5.351e-07,0.84,0.6,0
0.0425327,-0.00231558,0.0291722,0.000850717,0.00900687,0.000245296,0,0,0.0524298,-0.021206,0,0.00127554,0,0,0,0.0291743,0.000848593,0.00900687,0.496196,0.0130099,0.025255,5.4562e-07,0.86,0.6,0
0.0435846,-0.00238275,0.0293503,0.000846871,0.00905915,0.000267074,0,0,0.052757,-0.0213519,0,0.00138878,0,0,0,0.0293528,0.000844369,0.00905915,0.536791,0.0130854,0.025417,5.55906e-07,0.88,0.6,0
0.0446429,-0.00243631,0.029506,0.000822827,0.00909866,0.000264094,0,0,0.0530592,-0.0215172,0,0.00137329,0,0,0,0.0295085,0.000820396,0.00909866,0.527479,0.0131425,0.0255743,5.65432e-07,0.9,0.6,0
0.045707,-0.00247776,0.0296364,0.000789658,0.00912783,0.000238942,0,0,0.0533224,-0.0216792,0,0.0012425,0,0,0,0.0296384,0.000787679,0.00912783,0.474545,0.0131846,0.0257158,5.73753e-07,0.92,0.6,0
0.0467758,-0.00250847,0.0297394,0.000755902,0.0091486,0.000195449,0,0,0.0535361,-0.021821,0,0.00101633,0,0,0,0.0297407,0.000754584,0.0091486,0.386348,0.0132146,0.0258331,5.80526e-07,0.94,0.6,0
0.0478484,-0.00252956,0.0298137,0.000727732,0.00916242,0.000138039,0,0,0.0536933,-0.0219302,0,0.000717803,0,0,0,0.0298143,0.000727076,0.00916242,0.271912,0.0132346,0.0259203,5.85513e-07,0.96,0.6,0
0.0489236,-0.00254188,0.0298585,0.000709268,0.00917032,7.13382e-05,0,0,0.0537892,-0.0219987,0,0.000370959,0,0,0,0.0298586,0.000709093,0.00917032,0.140222,0.013246,0.025974,5.8856e-07,0.98,0.6,0
0.05,-0.00254593,0.0298734,0.000702859,0.00917289,-3.89291e-05,0,0,0.0538214,-0.0220221,0,-0.000202431,0,0,0,0.0298735,0.000702807,0.00917289,-0.076463,0.0132497,0.0259922,5.89589e-07,1,0.6,0
0,0,0.0278778,0.0119476,0.0119476,-0.00233974,0,0,0.0414185,4.87891e-19,0,-0.0121666,0,0,0,0.0282143,0.0116111,0.0119476,-8.18505,0.0172577,0.0164376,2.27784e-07,0,0.62,0
0.000828369,-0.000243333,0.0278102,0.0111529,0.0116889,-0.00233154,0,0,0.0419153,-0.0013937,0,-0.012124,0,0,0,0.0281304,0.0108327,0.0116889,-7.81957,0.016884,0.0168859,2.4514e-07,0.02,0.62,0
0.00167661,-0.000475131,0.0280711,0.0104902,0.0115684,-0.00227064,0,0,0.0429071,-0.00280331,0,-0.0118073,0,0,0,0.0283596,0.0102017,0.0115684,-7.24168,0.0167099,0.0175146,2.70289e-07,0.04,0.62,0
0.00254465,-0.000695586,0.0283251,0.00982687,0.0114456,-0.00221131,0,0,0.0438866,-0.00420864,0,-0.0114988,0,0,0,0.0285857,0.0095662,0.0114456,-6.72304,0.0165325,0.018153,2.96156e-07,0.06,0.62,0
0.00343208,-0.0009046,0.0285668,0.00917107,0.0113214,-0.00215055,0,0,0.0448381,-0.00559075,0,-0.0111829,0,0,0,0.0288024,0.00893548,0.0113214,-6.25166,0.0163531,0.0187879,3.22168e-07,0.08,0.62,0
0.00433818,-0.00110184,0.0287913,0.0085303,0.0111965,-0.00208614,0,0,0.0457466,-0.00693209,0,-0.0108479,0,0,0,0.0290039,0.00831773,0.0111965,-5.81802,0.0161727,0.0194076,3.47752e-07,0.1,0.62,0
0.00526194,-0.00128679,0.0289941,0.00791129,0.0110716,-0.00201652,0,0,0.0465985,-0.00821687,0,-0.0104859,0,0,0,0.0291853,0.00772014,0.0110716,-5.41479,0.0159923,0.0200011,3.72349e-07,0.12,0.62,0
0.00620212,-0.0014588,0.0291711,0.00731979,0.0109473,-0.00194071,0,0,0.0473819,-0.00943142,0,-0.0100917,0,0,0,0.0293421,0.00714877,0.0109473,-5.03616,0.0158127,0.020559,3.95436e-07,0.14,0.62,0
0.00715722,-0.00161712,0.0293186,0.00676041,0.0108237,-0.00185805,0,0,0.0480868,-0.0105646,0,-0.00966188,0,0,0,0.0294707,0.0066084,0.0108237,-4.67728,0.0156343,0.0210732,4.16548e-07,0.16,0.62,0
0.00812559,-0.00176091,0.0294338,0.00623641,0.0107011,-0.00176808,0,0,0.0487052,-0.0116081,0,-0.00919401,0,0,0,0.0295678,0.00610243,0.0107011,-4.33365,0.0154571,0.0215375,4.35294e-07,0.18,0.62,0
0.00910543,-0.00188929,0.0295144,0.00574955,0.0105792,-0.00167025,0,0,0.0492316,-0.0125571,0,-0.00868531,0,0,0,0.0296312,0.00563274,0.0105792,-4.00068,0.0152811,0.0219474,4.51376e-07,0.2,0.62,0
0.0100949,-0.00200133,0.0295588,0.00529995,0.0104576,-0.00156382,0,0,0.0496631,-0.01341,0,-0.00813187,0,0,0,0.0296592,0.00519956,0.0104576,-3.67325,0.0151055,0.0223005,4.646e-07,0.22,0.62,0
0.0110919,-0.00209603,0.0295663,0.00488591,0.0103357,-0.00144771,0,0,0.0499996,-0.0141694,0,-0.00752811,0,0,0,0.0296509,0.00480128,0.0103357,-3.34559,0.0149293,0.0225966,4.74892e-07,0.24,0.62,0
0.0120948,-0.00217237,0.0295371,0.00450372,0.0102122,-0.00132054,0,0,0.0502446,-0.0148422,0,-0.0068668,0,0,0,0.0296065,0.00443425,0.0102122,-3.01128,0.014751,0.0228382,4.82313e-07,0.26,0.62,0
0.0131017,-0.00222926,0.0294724,0.00414749,0.010086,-0.00118074,0,0,0.0504047,-0.01544,0,-0.00613984,0,0,0,0.0295273,0.00409256,0.010086,-2.66363,0.0145686,0.0230306,4.87064e-07,0.28,0.62,0
0.014111,-0.00226565,0.0293745,0.00380905,0.00995508,-0.00102693,0,0,0.0504906,-0.0159797,0,-0.00534002,0,0,0,0.0294157,0.00376787,0.00995508,-2.29655,0.0143796,0.023182,4.8949e-07,0.3,0.62,0
0.0151214,-0.00228051,0.029247,0.00347795,0.00981748,-0.000858405,0,0,0.0505167,-0.0164828,0,-0.00446371,0,0,0,0.0292756,0.00344939,0.00981748,-1.90579,0.0141808,0.0233041,4.90072e-07,0.32,0.62,0
0.0161317,-0.00227304,0.0290941,0.00314192,0.00967079,-0.000675802,0,0,0.0505005,-0.0169751,0,-0.00351417,0,0,0,0.0291116,0.00312434,0.00967079,-1.49065,0.0139689,0.0234109,4.89391e-07,0.34,0.62,0
0.0171414,-0.00224277,0.0289206,0.00278772,0.0095125,-0.000481618,0,0,0.0504611,-0.0174844,0,-0.00250441,0,0,0,0.0289295,0.00277885,0.0095125,-1.05546,0.0137403,0.0235183,4.88061e-07,0.36,0.62,0
0.0181501,-0.00218982,0.028732,0.00240265,0.00934039,-0.000280527,0,0,0.0504182,-0.0180381,0,-0.00145874,0,0,0,0.028735,0.00239967,0.00934039,-0.610367,0.0134917,0.0236418,4.86667e-07,0.38,0.62,0
0.0191581,-0.00211509,0.0285338,0.00197573,0.00915285,-7.91533e-05,0,0,0.0503904,-0.0186605,0,-0.000411597,0,0,0,0.028534,0.0019755,0.00915285,-0.170762,0.0132208,0.023796,4.85702e-07,0.4,0.62,0
0.0201658,-0.00202051,0.0283333,0.00149938,0.0089498,0.000113689,0,0,0.050397,-0.0193711,0,0.000591183,0,0,0,0.0283338,0.0014989,0.0089498,0.242743,0.0129275,0.0239934,4.85602e-07,0.42,0.62,0
0.021174,-0.0019094,0.0281377,0.000967216,0.00873148,0.000286397,0,0,0.0504562,-0.0201871,0,0.00148926,0,0,0,0.0281407,0.000964197,0.00873148,0.60385,0.0126121,0.0242447,4.86683e-07,0.44,0.62,0
0.022184,-0.00178678,0.0279533,0.000379972,0.0085,0.000420759,0,0,0.0505787,-0.0211121,0,0.00218795,0,0,0,0.0279598,0.000373553,0.0085,0.87404,0.0122778,0.0245532,4.88988e-07,0.46,0.62,0
0.0231971,-0.00165992,0.0277792,-0.000245522,0.00826009,0.000495569,0,0,0.0507496,-0.0221146,0,0.00257696,0,0,0,0.0277879,-0.000254283,0.00826009,1.01276,0.0119312,0.0249018,4.91834e-07,0.48,0.62,0
0.024214,-0.00153804,0.0276108,-0.000856993,0.00802616,0.000494476,0,0,0.0509202,-0.0230962,0,0.00257128,0,0,0,0.0276194,-0.00086558,0.00802616,0.994807,0.0115933,0.0252424,4.93847e-07,0.5,0.62,0
0.0252339,-0.00143095,0.0274465,-0.0013787,0.00782035,0.000427241,0,0,0.0510281,-0.0239175,0,0.00222166,0,0,0,0.0274529,-0.00138503,0.00782035,0.848977,0.0112961,0.0255127,4.93759e-07,0.52,0.62,0
0.0262551,-0.00134666,0.027292,-0.00175946,0.00765977,0.000326382,0,0,0.0510439,-0.02449,0,0.00169719,0,0,0,0.0272957,-0.00176313,0.00765977,0.643587,0.0110641,0.0256786,4.91459e-07,0.54,0.62,0
0.0272757,-0.00128984,0.0271631,-0.00200457,0.00754756,0.000229159,0,0,0.0510004,-0.0248356,0,0.00119163,0,0,0,0.0271649,-0.00200637,0.00754756,0.450113,0.010902,0.0257593,4.88263e-07,0.56,0.62,0
0.0282951,-0.00126225,0.0270804,-0.00215572,0.00747742,0.000148621,0,0,0.0509679,-0.0250462,0,0.000772828,0,0,0,0.0270812,-0.00215648,0.00747742,0.29125,0.0108007,0.0258066,4.86079e-07,0.58,0.62,0
0.0293144,-0.00126441,0.0270607,-0.00224505,0.00744469,7.23781e-05,0,0,0.0510016,-0.0251933,0,0.000376366,0,0,0,0.0270609,-0.00224523,0.00744469,0.141505,0.0107534,0.0258606,4.86305e-07,0.6,0.62,0
0.0303352,-0.00129699,0.0271038,-0.00227229,0.00744945,-2.39819e-05,0,0,0.0511013,-0.0252765,0,-0.000124706,0,0,0,0.0271038,-0.00227231,0.00744945,-0.0467748,0.0107603,0.0259207,4.88966e-07,0.62,0.62,0
0.0313585,-0.00136077,0.0271928,-0.0022043,0.00749654,-0.000152685,0,0,0.0512102,-0.0252222,0,-0.000793964,0,0,0,0.0271936,-0.0022051,0.00749654,-0.297578,0.0108283,0.0259459,4.92741e-07,0.64,0.62,0
0.0323836,-0.00145523,0.0273067,-0.00199778,0.00759268,-0.000299808,0,0,0.0512565,-0.0249352,0,-0.001559,0,0,0,0.0273098,-0.00200085,0.00759268,-0.5861,0.0109672,0.0258835,4.95869e-07,0.66,0.62,0
0.0334087,-0.00157683,0.0274299,-0.00164632,0.00773508,-0.000426084,0,0,0.0512066,-0.0243916,0,-0.00221564,0,0,0,0.0274362,-0.00165256,0.00773508,-0.839373,0.0111729,0.0257139,4.9719e-07,0.68,0.62,0
0.0344319,-0.00171842,0.0275571,-0.00120218,0.00790648,-0.000496268,0,0,0.0510917,-0.0236825,0,-0.00258059,0,0,0,0.0275657,-0.00121074,0.00790648,-0.988299,0.0114205,0.0254725,4.96878e-07,0.7,0.62,0
0.0354524,-0.00187085,0.0276914,-0.000744748,0.008084,-0.000498226,0,0,0.0509793,-0.0229547,0,-0.00259078,0,0,0,0.0277001,-0.000753475,0.008084,-1.00346,0.0116769,0.025224,4.96178e-07,0.72,0.62,0
0.036471,-0.00202534,0.0278388,-0.000330923,0.00825235,-0.000446953,0,0,0.0509246,-0.0223165,0,-0.00232416,0,0,0,0.0278458,-0.000338012,0.00825235,-0.908776,0.0119201,0.0250203,4.96452e-07,0.74,0.62,0
0.0374894,-0.002175,0.0280021,1.80733e-05,0.00840604,-0.000363222,0,0,0.0509497,-0.0218087,0,-0.00188875,0,0,0,0.0280068,1.33596e-05,0.00840604,-0.743511,0.0121421,0.0248823,4.98443e-07,0.76,0.62,0
0.038509,-0.0023151,0.0281769,0.000297596,0.00854234,-0.00026529,0,0,0.0510498,-0.0214363,0,-0.00137951,0,0,0,0.0281794,0.000295071,0.00854234,-0.545143,0.0123389,0.0248109,5.02212e-07,0.78,0.62,0
0.0395314,-0.00244261,0.0283575,0.000510462,0.00866039,-0.000165024,0,0,0.0512125,-0.0211898,0,-0.000858124,0,0,0,0.0283585,0.000509484,0.00866039,-0.339524,0.0125094,0.0247994,5.07571e-07,0.8,0.62,0
0.0405575,-0.00255586,0.028538,0.000661011,0.00875969,-7.15658e-05,0,0,0.0514235,-0.0210566,0,-0.000372142,0,0,0,0.0285381,0.000660828,0.00875969,-0.147089,0.0126529,0.0248387,5.14226e-07,0.82,0.62,0
0.0415883,-0.00265421,0.0287138,0.000757356,0.00884135,8.13948e-06,0,0,0.0516684,-0.0210184,0,4.23253e-05,0,0,0,0.0287138,0.000757353,0.00884135,0.0166816,0.0127708,0.0249182,5.21836e-07,0.84,0.62,0
0.0426243,-0.00273777,0.0288807,0.000809802,0.00890714,6.92379e-05,0,0,0.0519312,-0.0210531,0,0.000360037,0,0,0,0.0288808,0.000809631,0.00890714,0.141321,0.0128659,0.0250251,5.29973e-07,0.86,0.62,0
0.0436656,-0.00280721,0.0290343,0.00082969,0.00895919,0.000109324,0,0,0.0521952,-0.0211367,0,0.000568486,0,0,0,0.0290347,0.000829266,0.00895919,0.222081,0.0129411,0.0251463,5.38156e-07,0.88,0.62,0
0.0447121,-0.0028635,0.0291706,0.000827892,0.00899955,0.000128272,0,0,0.0524448,-0.0212463,0,0.000667017,0,0,0,0.0291712,0.000827312,0.00899955,0.2593,0.0129994,0.0252691,5.4591e-07,0.9,0.62,0
0.0457633,-0.00290772,0.0292863,0.000813919,0.00903007,0.000127787,0,0,0.0526662,-0.021362,0,0.000664491,0,0,0,0.0292869,0.000813345,0.00903007,0.257142,0.0130434,0.025383,5.5281e-07,0.92,0.62,0
0.0468187,-0.0029409,0.0293787,0.000795461,0.00905224,0.000110826,0,0,0.0528487,-0.0214676,0,0.000576293,0,0,0,0.0293791,0.000795031,0.00905224,0.222148,0.0130755,0.0254795,5.5851e-07,0.94,0.62,0
0.0478773,-0.00296393,0.0294458,0.000778318,0.00906725,8.11031e-05,0,0,0.0529844,-0.0215512,0,0.000421736,0,0,0,0.0294461,0.000778089,0.00906725,0.162093,0.0130971,0.0255525,5.62755e-07,0.96,0.62,0
0.0489381,-0.00297746,0.0294866,0.000766484,0.00907592,4.27304e-05,0,0,0.0530677,-0.0216045,0,0.000222198,0,0,0,0.0294867,0.00076642,0.00907592,0.0852456,0.0131097,0.0255978,5.65368e-07,0.98,0.62,0
0.05,-0.00298193,0.0295003,0.000762285,0.00907876,-4.29405e-05,0,0,0.0530959,-0.0216228,0,-0.000223291,0,0,0,0.0295003,0.000762221,0.00907876,-0.0856116,0.0131138,0.0256133,5.66256e-07,1,0.62,0
0,0,0.027719,0.0118796,0.0118796,-0.00260623,0,0,0.0411825,-1.0842e-19,0,-0.0135524,0,0,0,0.0281368,0.0114618,0.0118796,-9.10771,0.0171594,0.0164701,2.28966e-07,0,0.64,0
0.00082365,-0.000271048,0.0276524,0.0110904,0.0116228,-0.00259583,0,0,0.0416768,-0.00138431,0,-0.0134983,0,0,0,0.0280497,0.0106931,0.0116228,-8.70229,0.0167885,0.0169109,2.45854e-07,0.02,0.64,0
0.00166707,-0.00053096,0.0279115,0.0104278,0.0115018,-0.00253086,0,0,0.0426652,-0.00279231,0,-0.0131605,0,0,0,0.0282705,0.0100689,0.0115018,-8.07317,0.0166137,0.0175292,2.7041e-07,0.04,0.64,0
0.00253026,-0.000779507,0.028164,0.00976141,0.0113776,-0.00246181,0,0,0.0436446,-0.00420216,0,-0.0128014,0,0,0,0.0284876,0.00943778,0.0113776,-7.48932,0.0164344,0.0181578,2.95679e-07,0.06,0.64,0
0.00341286,-0.00101619,0.0284042,0.00910009,0.0112513,-0.00238597,0,0,0.0445975,-0.00559309,0,-0.0124071,0,0,0,0.0286947,0.00880956,0.0112513,-6.94254,0.0162518,0.0187837,3.21075e-07,0.08,0.64,0
0.00431416,-0.00124032,0.0286267,0.00845221,0.0111237,-0.00230152,0,0,0.0455079,-0.00694582,0,-0.0119679,0,0,0,0.0288859,0.00819298,0.0111237,-6.42634,0.0160675,0.0193944,3.46008e-07,0.1,0.64,0
0.00523317,-0.00145105,0.0288269,0.00782521,0.0109956,-0.00220741,0,0,0.0463612,-0.00824307,0,-0.0114785,0,0,0,0.0290564,0.00759571,0.0109956,-5.93574,0.0158826,0.0199789,3.69912e-07,0.12,0.64,0
0.00616861,-0.00164743,0.0290004,0.00722538,0.0108677,-0.00210324,0,0,0.047145,-0.00947015,0,-0.0109368,0,0,0,0.0292017,0.00702409,0.0108677,-5.46681,0.0156979,0.0205275,3.92268e-07,0.14,0.64,0
0.00711897,-0.0018285,0.029144,0.00665761,0.0107405,-0.00198905,0,0,0.0478492,-0.0106155,0,-0.010343,0,0,0,0.0293186,0.00648302,0.0107405,-5.01622,0.015514,0.0210325,4.1263e-07,0.16,0.64,0
0.00808258,-0.00199325,0.029255,0.00612524,0.0106141,-0.00186511,0,0,0.0484664,-0.0116709,0,-0.00969858,0,0,0,0.0294044,0.00597581,0.0106141,-4.58071,0.0153314,0.0214883,4.30643e-07,0.18,0.64,0
0.00905763,-0.00214071,0.0293316,0.0056299,0.0104884,-0.0017317,0,0,0.0489922,-0.0126322,0,-0.00900482,0,0,0,0.0294574,0.00550405,0.0104884,-4.15674,0.01515,0.021891,4.46061e-07,0.2,0.64,0
0.0100423,-0.00226993,0.029373,0.00517141,0.0103633,-0.0015889,0,0,0.0494251,-0.013499,0,-0.00826227,0,0,0,0.0294769,0.00506754,0.0103633,-3.74022,0.0149692,0.0222395,4.58756e-07,0.22,0.64,0
0.0110346,-0.00237999,0.0293793,0.00474773,0.0102381,-0.00143655,0,0,0.0497671,-0.014275,0,-0.00747006,0,0,0,0.0294628,0.00466423,0.0102381,-3.32654,0.0147884,0.0225347,4.68724e-07,0.24,0.64,0
0.0120329,-0.00246999,0.0293517,0.00435486,0.010112,-0.00127425,0,0,0.0500233,-0.0149685,0,-0.00662612,0,0,0,0.0294165,0.00429007,0.010112,-2.91068,0.0146062,0.0227804,4.76095e-07,0.26,0.64,0
0.0130356,-0.00253912,0.0292923,0.00398686,0.00998376,-0.00110152,0,0,0.0502023,-0.0155919,0,-0.0057279,0,0,0,0.0293402,0.00393901,0.00998376,-2.48775,0.014421,0.0229829,4.81127e-07,0.28,0.64,0
0.014041,-0.00258662,0.0292043,0.00363591,0.00985208,-0.000918076,0,0,0.0503159,-0.016162,0,-0.00477399,0,0,0,0.0292373,0.00360299,0.00985208,-2.05377,0.0142308,0.0231512,4.84202e-07,0.3,0.64,0
0.0150482,-0.00261193,0.0290919,0.00329249,0.00971533,-0.00072427,0,0,0.0503792,-0.0166994,0,-0.0037662,0,0,0,0.0291123,0.00327217,0.00971533,-1.60678,0.0140333,0.0232966,4.85806e-07,0.32,0.64,0
0.0160562,-0.0026147,0.0289601,0.00294586,0.00957179,-0.000521547,0,0,0.0504096,-0.0172274,0,-0.00271204,0,0,0,0.0289706,0.00293541,0.00957179,-1.14808,0.0138259,0.0234327,4.86494e-07,0.34,0.64,0
0.0170646,-0.00259502,0.0288145,0.00258486,0.00941981,-0.000312883,0,0,0.0504262,-0.0177709,0,-0.00162699,0,0,0,0.0288183,0.00258113,0.00941981,-0.683329,0.0136064,0.0235739,4.86845e-07,0.36,0.64,0
0.0180733,-0.00255349,0.0286613,0.00219883,0.00925805,-0.000103085,0,0,0.0504486,-0.018354,0,-0.000536043,0,0,0,0.0286617,0.00219843,0.00925805,-0.223192,0.0133727,0.0237345,4.87413e-07,0.38,0.64,0
0.0190825,-0.0024915,0.0285072,0.00177884,0.00908582,0.000100939,0,0,0.0504957,-0.0189981,0,0.00052488,0,0,0,0.0285076,0.00177846,0.00908582,0.216371,0.013124,0.0239275,4.88679e-07,0.4,0.64,0
0.0200931,-0.00241137,0.0283588,0.00131837,0.00890314,0.000289872,0,0,0.0505847,-0.0197204,0,0.00150734,0,0,0,0.0283619,0.00131526,0.00890314,0.614115,0.0128601,0.0241634,4.9101e-07,0.42,0.64,0
0.0211059,-0.00231664,0.0282218,0.000815435,0.00871118,0.000451223,0,0,0.0507277,-0.0205289,0,0.00234636,0,0,0,0.0282293,0.000808008,0.00871118,0.942985,0.0125828,0.0244473,4.94566e-07,0.44,0.64,0
0.0221222,-0.00221228,0.0280992,0.000275909,0.00851252,0.000569844,0,0,0.0509253,-0.0214152,0,0.00296319,0,0,0,0.0281108,0.000264243,0.00851252,1.17281,0.0122959,0.0247746,4.99146e-07,0.46,0.64,0
0.0231429,-0.00210474,0.0279896,-0.00027967,0.00831296,0.000630495,0,0,0.0511591,-0.0223408,0,0.00327858,0,0,0,0.0280036,-0.000293725,0.00831296,1.27704,0.0120076,0.025125,5.04077e-07,0.48,0.64,0
0.0241686,-0.00200159,0.0278888,-0.000813686,0.00812254,0.000625463,0,0,0.0513923,-0.0232342,0,0.00325241,0,0,0,0.0279025,-0.000827309,0.00812254,1.24776,0.0117326,0.0254631,5.08348e-07,0.5,0.64,0
0.0251986,-0.00191056,0.0277938,-0.00128034,0.00795404,0.000560478,0,0,0.0515834,-0.0240094,0,0.00291448,0,0,0,0.0278046,-0.00129114,0.00795404,1.10397,0.0114892,0.0257496,5.11099e-07,0.52,0.64,0
0.0262319,-0.0018383,0.0277057,-0.00164642,0.00781779,0.00045483,0,0,0.0517086,-0.0246069,0,0.00236511,0,0,0,0.0277128,-0.00165346,0.00781779,0.88755,0.0112924,0.0259604,5.12123e-07,0.54,0.64,0
0.027267,-0.00178948,0.027631,-0.00190519,0.00771775,0.000330077,0,0,0.0517745,-0.0250196,0,0.0017164,0,0,0,0.0276347,-0.00190887,0.00771775,0.640192,0.0111479,0.0260977,5.11965e-07,0.56,0.64,0
0.0283029,-0.00176684,0.0275795,-0.00206884,0.00765321,0.000199201,0,0,0.0518085,-0.0252773,0,0.00103584,0,0,0,0.0275809,-0.00207018,0.00765321,0.384934,0.0110546,0.0261805,5.1155e-07,0.58,0.64,0
0.0293393,-0.00177179,0.0275584,-0.00215036,0.0076224,6.27529e-05,0,0,0.0518335,-0.0254092,0,0.000326315,0,0,0,0.0275585,-0.00215049,0.0076224,0.121024,0.0110101,0.0262258,5.11565e-07,0.6,0.64,0
0.0303762,-0.00180498,0.0275673,-0.00214942,0.00762537,-8.38098e-05,0,0,0.0518491,-0.0254144,0,-0.000435811,0,0,0,0.0275676,-0.00214966,0.00762537,-0.161589,0.0110144,0.0262331,5.12045e-07,0.62,0.64,0
0.0314133,-0.00186628,0.0275989,-0.00205238,0.00766395,-0.000239546,0,0,0.0518308,-0.0252625,0,-0.00124564,0,0,0,0.0276008,-0.00205431,0.00766395,-0.462839,0.0110702,0.0261854,5.12392e-07,0.64,0.64,0
0.0324494,-0.00195414,0.0276431,-0.00184642,0.00773901,-0.000390539,0,0,0.0517507,-0.0249221,0,-0.0020308,0,0,0,0.0276483,-0.00185159,0.00773901,-0.758607,0.0111786,0.0260634,5.11798e-07,0.66,0.64,0
0.0334833,-0.00206499,0.0276936,-0.00153828,0.0078466,-0.000513695,0,0,0.0516022,-0.0244007,0,-0.00267121,0,0,0,0.0277026,-0.0015473,0.0078466,-1.00645,0.011334,0.0258657,5.09836e-07,0.68,0.64,0
0.0345135,-0.00219312,0.0277496,-0.0011625,0.00797615,-0.000587866,0,0,0.0514111,-0.0237605,0,-0.0030569,0,0,0,0.0277616,-0.00117444,0.00797615,-1.16434,0.0115211,0.0256173,5.06782e-07,0.7,0.64,0
0.0355397,-0.00233157,0.0278154,-0.000767605,0.00811434,-0.00060564,0,0,0.0512228,-0.0230931,0,-0.00314933,0,0,0,0.0278282,-0.000780432,0.00811434,-1.2133,0.0117207,0.0253595,5.03511e-07,0.72,0.64,0
0.0365624,-0.0024734,0.0278965,-0.000394806,0.0082505,-0.000573606,0,0,0.0510795,-0.0224778,0,-0.00298275,0,0,0,0.0279081,-0.000406431,0.0082505,-1.16104,0.0119174,0.0251304,5.01037e-07,0.74,0.64,0
0.0375829,-0.00261269,0.0279956,-6.84312e-05,0.00837815,-0.000506467,0,0,0.0510053,-0.0219611,0,-0.00263363,0,0,0,0.0280047,-7.75683e-05,0.00837815,-1.03356,0.0121018,0.0249531,5.00065e-07,0.76,0.64,0
0.0386027,-0.00274494,0.0281116,0.000201981,0.00849408,-0.000419266,0,0,0.0510056,-0.0215595,0,-0.00218019,0,0,0,0.0281179,0.000195684,0.00849408,-0.860454,0.0122692,0.0248356,5.00866e-07,0.78,0.64,0
0.0396231,-0.00286706,0.0282402,0.000414965,0.00859656,-0.000324613,0,0,0.0510736,-0.0212721,0,-0.00168799,0,0,0,0.028244,0.000411178,0.00859656,-0.668299,0.0124173,0.0247759,5.03379e-07,0.8,0.64,0
0.0406456,-0.0029771,0.0283762,0.000573808,0.008685,-0.000232013,0,0,0.0511971,-0.0210891,0,-0.00120647,0,0,0,0.0283781,0.000571872,0.008685,-0.478094,0.012545,0.0247672,5.07366e-07,0.82,0.64,0
0.041671,-0.00307407,0.0285141,0.000684524,0.00875958,-0.00014851,0,0,0.0513617,-0.0209951,0,-0.000772252,0,0,0,0.0285149,0.000683731,0.00875958,-0.305742,0.0126527,0.0247998,5.12483e-07,0.84,0.64,0
0.0427001,-0.0031577,0.0286488,0.000755143,0.00882118,-7.88678e-05,0,0,0.0515518,-0.0209717,0,-0.000410112,0,0,0,0.028649,0.00075492,0.00882118,-0.161999,0.0127417,0.0248625,5.18326e-07,0.86,0.64,0
0.0437331,-0.00322822,0.0287756,0.000794581,0.00887104,-2.57192e-05,0,0,0.0517517,-0.0209988,0,-0.00013374,0,0,0,0.0287756,0.000794557,0.00887104,-0.0526643,0.0128137,0.0249435,5.24456e-07,0.88,0.64,0
0.0447701,-0.00328616,0.0288901,0.000811688,0.00891052,1.02556e-05,0,0,0.0519468,-0.021057,0,5.3329e-05,0,0,0,0.0288901,0.000811684,0.00891052,0.0209272,0.0128708,0.0250317,5.30442e-07,0.9,0.64,0
0.045811,-0.00333224,0.0289886,0.000814483,0.00894092,2.99904e-05,0,0,0.0521239,-0.0211287,0,0.00015595,0,0,0,0.0289886,0.000814451,0.00894092,0.0609893,0.0129147,0.0251171,5.35889e-07,0.92,0.64,0
0.0468551,-0.00336717,0.0290681,0.000809703,0.00896335,3.56306e-05,0,0,0.0522724,-0.0211995,0,0.000185279,0,0,0,0.0290682,0.000809658,0.00896335,0.0722431,0.0129471,0.0251916,5.40466e-07,0.94,0.64,0
0.0479019,-0.00339161,0.0291265,0.000802593,0.00897872,3.01455e-05,0,0,0.0523841,-0.0212579,0,0.000156757,0,0,0,0.0291265,0.000802561,0.00897872,0.0609806,0.0129693,0.025249,5.43915e-07,0.96,0.64,0
0.0489505,-0.00340606,0.0291621,0.000796862,0.00898768,1.70148e-05,0,0,0.0524534,-0.0212961,0,8.84769e-05,0,0,0,0.0291621,0.000796851,0.00898768,0.0343687,0.0129822,0.0252852,5.46056e-07,0.98,0.64,0
0.05,-0.00341084,0.029174,0.000794709,0.00899062,-4.59647e-05,0,0,0.0524768,-0.0213094,0,-0.000239016,0,0,0,0.0291741,0.000794634,0.00899062,-0.0927991,0.0129864,0.0252976,5.46787e-07,1,0.64,0
0,0,0.0275759,0.0118182,0.0118182,-0.00287216,0,0,0.0409698,-2.71051e-19,0,-0.0149353,0,0,0,0.028083,0.011311,0.0118182,-10.0145,0.0170708,0.0165243,2.30998e-07,0,0.66,0
0.000819397,-0.000298705,0.0275096,0.0110271,0.011561,-0.00285957,0,0,0.0414663,-0.00138822,0,-0.0148698,0,0,0,0.0279916,0.010545,0.011561,-9.56795,0.0166992,0.0169614,2.47586e-07,0.02,0.66,0
0.00165865,-0.000586824,0.0277695,0.0103586,0.0114384,-0.00279102,0,0,0.0424608,-0.00280752,0,-0.0145133,0,0,0,0.028206,0.00992217,0.0114384,-8.88808,0.0165222,0.0175748,2.71816e-07,0.04,0.66,0
0.00251783,-0.000863673,0.0280231,0.00968332,0.0113119,-0.00271228,0,0,0.043449,-0.00423435,0,-0.0141039,0,0,0,0.0284158,0.00929061,0.0113119,-8.23863,0.0163394,0.0181989,2.96733e-07,0.06,0.66,0
0.00339661,-0.00112832,0.0282641,0.00901107,0.0111826,-0.002621,0,0,0.0444121,-0.00564586,0,-0.0136292,0,0,0,0.0286145,0.00866064,0.0111826,-7.61532,0.0161526,0.0188201,3.21735e-07,0.08,0.66,0
0.00429431,-0.00137967,0.028487,0.00835118,0.0110515,-0.0025158,0,0,0.0453324,-0.00702071,0,-0.0130821,0,0,0,0.0287966,0.00804161,0.0110515,-7.01496,0.0159632,0.0194257,3.46218e-07,0.1,0.66,0
0.00520991,-0.00161652,0.0286867,0.00771196,0.0109196,-0.00239629,0,0,0.0461945,-0.00833986,0,-0.0124607,0,0,0,0.028957,0.00744167,0.0109196,-6.43537,0.0157728,0.0200044,3.69607e-07,0.12,0.66,0
0.00614209,-0.00183761,0.028859,0.00710032,0.0107878,-0.00226289,0,0,0.0469851,-0.00958743,0,-0.011767,0,0,0,0.0290918,0.00686747,0.0107878,-5.87496,0.0155824,0.0205466,3.9139e-07,0.14,0.66,0
0.00708931,-0.00204173,0.0290006,0.00652154,0.0106566,-0.00211654,0,0,0.0476943,-0.0107512,0,-0.011006,0,0,0,0.0291981,0.00632399,0.0106566,-5.33232,0.0153929,0.021045,4.11146e-07,0.16,0.66,0
0.00804986,-0.00222774,0.0291092,0.00597906,0.0105265,-0.00195849,0,0,0.0483151,-0.0118233,0,-0.0101842,0,0,0,0.0292739,0.0058144,0.0105265,-4.80579,0.0152049,0.0214944,4.28561e-07,0.18,0.66,0
0.00902192,-0.00239458,0.0291837,0.0054744,0.0103974,-0.00178999,0,0,0.0488444,-0.0127999,0,-0.00930797,0,0,0,0.0293181,0.00534002,0.0103974,-4.29325,0.0150185,0.021892,4.43441e-07,0.2,0.66,0
0.0100036,-0.00254128,0.029224,0.0050071,0.0102693,-0.00161214,0,0,0.0492822,-0.0136818,0,-0.00838313,0,0,0,0.0293309,0.00490025,0.0102693,-3.79192,0.0148335,0.0222376,4.55722e-07,0.22,0.66,0
0.0109932,-0.00266703,0.029231,0.00457481,0.0101417,-0.00142577,0,0,0.0496321,-0.014474,0,-0.00741401,0,0,0,0.0293132,0.00449264,0.0101417,-3.29853,0.0146492,0.0225335,4.65467e-07,0.24,0.66,0
0.0119889,-0.00277111,0.0292067,0.00417331,0.010014,-0.00123149,0,0,0.049901,-0.0151858,0,-0.00640376,0,0,0,0.0292671,0.00411287,0.010014,-2.80957,0.0144647,0.0227842,4.72861e-07,0.26,0.66,0
0.0129892,-0.00285294,0.029154,0.00379664,0.00988518,-0.00102983,0,0,0.0500989,-0.0158302,0,-0.00535512,0,0,0,0.0291957,0.00375488,0.00988518,-2.32184,0.0142786,0.0229969,4.78207e-07,0.28,0.66,0
0.0139929,-0.00291213,0.0290768,0.0034373,0.00975422,-0.000821488,0,0,0.0502386,-0.016424,0,-0.00427174,0,0,0,0.0291031,0.00341101,0.00975422,-1.83325,0.0140894,0.0231808,4.81907e-07,0.3,0.66,0
0.0149988,-0.00294848,0.0289798,0.00308657,0.00961992,-0.000607693,0,0,0.0503357,-0.0169867,0,-0.00316,0,0,0,0.0289941,0.00307232,0.00961992,-1.3437,0.0138954,0.023347,4.84438e-07,0.32,0.66,0
0.0160063,-0.00296213,0.0288685,0.00273497,0.00948104,-0.000390593,0,0,0.0504074,-0.0175398,0,-0.00203108,0,0,0,0.0288743,0.00272914,0.00948104,-0.856091,0.0136948,0.0235081,4.86325e-07,0.34,0.66,0
0.0170151,-0.00295361,0.0287487,0.00237293,0.0093365,-0.000173625,0,0,0.0504718,-0.0181053,0,-0.00090285,0,0,0,0.0287499,0.00237179,0.0093365,-0.377142,0.0134861,0.0236769,4.88096e-07,0.36,0.66,0
0.0180252,-0.00292398,0.0286267,0.00199165,0.00918552,3.81518e-05,0,0,0.0505472,-0.0187041,0,0.00019839,0,0,0,0.0286268,0.0019916,0.00918552,0.0820697,0.013268,0.0238658,4.90239e-07,0.38,0.66,0
0.019037,-0.00287501,0.0285087,0.00158404,0.00902782,0.000237791,0,0,0.0506503,-0.0193538,0,0.00123651,0,0,0,0.0285108,0.00158194,0.00902782,0.505968,0.0130402,0.0240852,4.93157e-07,0.4,0.66,0
0.0200512,-0.00280933,0.0284001,0.00114603,0.00886385,0.000416229,0,0,0.0507943,-0.0200663,0,0.00216439,0,0,0,0.0284065,0.00113967,0.00886385,0.874759,0.0128033,0.0243419,4.97103e-07,0.42,0.66,0
0.0210687,-0.00273055,0.0283049,0.000678311,0.00869497,0.00056245,0,0,0.0509859,-0.0208433,0,0.00292474,0,0,0,0.0283164,0.000666865,0.00869497,1.16584,0.0125594,0.0246368,5.02103e-07,0.44,0.66,0
0.0220906,-0.00264339,0.0282244,0.000189124,0.00852406,0.000664481,0,0,0.0512209,-0.0216708,0,0.0034553,0,0,0,0.0282401,0.000173384,0.00852406,1.35699,0.0123125,0.024962,5.07882e-07,0.46,0.66,0
0.0231176,-0.00255355,0.0281568,-0.000303503,0.00835598,0.000712191,0,0,0.0514821,-0.0225147,0,0.00370339,0,0,0,0.0281746,-0.000321313,0.00835598,1.43258,0.0120698,0.0252991,5.13854e-07,0.48,0.66,0
0.0241499,-0.00246741,0.0280983,-0.000772255,0.00819781,0.000701048,0,0,0.0517412,-0.0233222,0,0.00364545,0,0,0,0.0281153,-0.000789268,0.00819781,1.39019,0.0118413,0.0256217,5.19268e-07,0.5,0.66,0
0.0251872,-0.00239132,0.0280453,-0.00118677,0.00805754,0.000635196,0,0,0.051968,-0.0240352,0,0.00330302,0,0,0,0.028059,-0.00120057,0.00805754,1.24422,0.0116387,0.0259027,5.23482e-07,0.52,0.66,0
0.0262286,-0.00233094,0.0279963,-0.00152339,0.00794187,0.000526356,0,0,0.0521415,-0.0246097,0,0.00273705,0,0,0,0.0280057,-0.00153277,0.00794187,1.02119,0.0114716,0.0261232,5.26222e-07,0.54,0.66,0
0.0272729,-0.00229063,0.027953,-0.00177132,0.0078545,0.000389041,0,0,0.052256,-0.0250271,0,0.00202302,0,0,0,0.0279581,-0.00177641,0.0078545,0.749735,0.0113454,0.0262778,5.27629e-07,0.56,0.66,0
0.0283189,-0.00227334,0.0279187,-0.00193061,0.00779642,0.000234866,0,0,0.0523179,-0.0252903,0,0.00122131,0,0,0,0.0279205,-0.00193246,0.00779642,0.450789,0.0112615,0.0263708,5.28078e-07,0.58,0.66,0
0.0293656,-0.00228078,0.0278961,-0.00200435,0.00776753,7.07055e-05,0,0,0.0523343,-0.0254069,0,0.000367668,0,0,0,0.0278963,-0.00200451,0.00776753,0.135486,0.0112198,0.0264075,5.27882e-07,0.6,0.66,0
0.0304122,-0.00231357,0.027885,-0.00199234,0.00776779,-9.87759e-05,0,0,0.0523047,-0.0253763,0,-0.000513635,0,0,0,0.0278853,-0.00199267,0.00776779,-0.18942,0.0112201,0.0263882,5.27083e-07,0.62,0.66,0
0.0314578,-0.00237126,0.0278823,-0.00189126,0.00779731,-0.000266316,0,0,0.0522209,-0.0251903,0,-0.00138484,0,0,0,0.0278847,-0.00189364,0.00779731,-0.512441,0.0112628,0.0263074,5.2546e-07,0.64,0.66,0
0.0325011,-0.00245212,0.0278844,-0.001701,0.00785503,-0.000419513,0,0,0.0520764,-0.0248457,0,-0.00218147,0,0,0,0.0278904,-0.00170695,0.00785503,-0.81222,0.0113461,0.0261615,5.22738e-07,0.66,0.66,0
0.0335409,-0.00255286,0.0278899,-0.00143288,0.00793709,-0.000542712,0,0,0.0518772,-0.0243619,0,-0.0028221,0,0,0,0.0278999,-0.00144292,0.00793709,-1.05996,0.0114647,0.0259567,5.18872e-07,0.68,0.66,0
0.0345762,-0.00266884,0.0279004,-0.00111197,0.00803654,-0.000622892,0,0,0.0516462,-0.0237861,0,-0.00323904,0,0,0,0.0279138,-0.00112534,0.00803654,-1.22938,0.0116083,0.025713,5.14202e-07,0.7,0.66,0
0.0356067,-0.00279457,0.0279206,-0.000770948,0.0081449,-0.000654722,0,0,0.0514168,-0.0231812,0,-0.00340455,0,0,0,0.0279355,-0.000785881,0.0081449,-1.30654,0.0117649,0.0254593,5.09402e-07,0.72,0.66,0
0.0366328,-0.00292445,0.0279552,-0.000440097,0.00825454,-0.000641869,0,0,0.0512218,-0.0226061,0,-0.00333772,0,0,0,0.0279697,-0.000454599,0.00825454,-1.29427,0.0119232,0.0252238,5.05237e-07,0.74,0.66,0
0.0376556,-0.00305345,0.0280074,-0.000140763,0.00836,-0.000593997,0,0,0.0510833,-0.022102,0,-0.00308879,0,0,0,0.02802,-0.000153292,0.00836,-1.20837,0.0120756,0.0250272,5.02317e-07,0.76,0.66,0
0.0386762,-0.00317748,0.0280773,0.000115437,0.00845783,-0.000522927,0,0,0.0510107,-0.0216902,0,-0.00271922,0,0,0,0.0280871,0.000105661,0.00845783,-1.07101,0.0122169,0.02488,5.00964e-07,0.78,0.66,0
0.039696,-0.0032935,0.0281624,0.000324462,0.00854606,-0.000439718,0,0,0.0510025,-0.0213762,0,-0.00228653,0,0,0,0.0281694,0.000317518,0.00854606,-0.904721,0.0123443,0.0247842,5.01231e-07,0.8,0.66,0
0.0407163,-0.00339943,0.0282586,0.000487172,0.00862372,-0.000353536,0,0,0.0510506,-0.021155,0,-0.00183838,0,0,0,0.0282631,0.000482672,0.00862372,-0.729229,0.0124565,0.0247359,5.0297e-07,0.82,0.66,0
0.041738,-0.00349401,0.0283609,0.000607597,0.00869056,-0.000271357,0,0,0.051143,-0.0210157,0,-0.00141106,0,0,0,0.0283636,0.000604944,0.00869056,-0.560136,0.012553,0.024728,5.05906e-07,0.84,0.66,0
0.042762,-0.00357663,0.0284645,0.00069168,0.00874687,-0.000198075,0,0,0.051266,-0.0209435,0,-0.00102999,0,0,0,0.028466,0.000690268,0.00874687,-0.408604,0.0126344,0.0247512,5.09692e-07,0.86,0.66,0
0.0437887,-0.00364716,0.0285647,0.000746356,0.00879331,-0.00013664,0,0,0.0514055,-0.0209221,0,-0.000710529,0,0,0,0.0285653,0.000745685,0.00879331,-0.281421,0.0127014,0.0247955,5.13944e-07,0.88,0.66,0
0.0448182,-0.00370578,0.0286569,0.000778734,0.0088307,-8.82701e-05,0,0,0.0515482,-0.0209351,0,-0.000459004,0,0,0,0.0286572,0.000778455,0.0088307,-0.181412,0.0127555,0.0248511,5.18281e-07,0.9,0.66,0
0.0458506,-0.00375287,0.0287376,0.000795468,0.00885991,-5.27229e-05,0,0,0.0516819,-0.0209676,0,-0.000274159,0,0,0,0.0287377,0.000795368,0.00885991,-0.108109,0.0127977,0.0249092,5.22347e-07,0.92,0.66,0
0.0468855,-0.00378888,0.0288035,0.000802314,0.00888174,-2.86088e-05,0,0,0.0517965,-0.0210065,0,-0.000148766,0,0,0,0.0288035,0.000802285,0.00888174,-0.0585391,0.0128292,0.0249622,5.25837e-07,0.94,0.66,0
0.0479224,-0.00381424,0.0288522,0.000803876,0.00889683,-1.37004e-05,0,0,0.051884,-0.0210417,0,-7.12421e-05,0,0,0,0.0288522,0.00080387,0.00889683,-0.0279865,0.012851,0.0250043,5.28505e-07,0.96,0.66,0
0.0489609,-0.00382931,0.0288821,0.00080348,0.00890569,-5.20717e-06,0,0,0.0519388,-0.0210657,0,-2.70773e-05,0,0,0,0.0288821,0.000803479,0.00890569,-0.0106255,0.0128638,0.0250311,5.30177e-07,0.98,0.66,0
0.05,-0.00383431,0.0288922,0.000803126,0.00890861,-4.80354e-05,0,0,0.0519574,-0.0210742,0,-0.000249784,0,0,0,0.0288923,0.000803044,0.00890861,-0.0979816,0.012868,0.0250405,5.30752e-07,1,0.66,0
0,0,0.0274509,0.0117647,0.0117647,-0.00314016,0,0,0.0407841,5.42101e-20,0,-0.0163288,0,0,0,0.0280561,0.0111594,0.0117647,-10.9099,0.0169934,0.0166024,2.33983e-07,0,0.68,0
0.000815683,-0.000326577,0.0273842,0.0109635,0.0115043,-0.00312538,0,0,0.0412877,-0.00140602,0,-0.016252,0,0,0,0.0279589,0.0103888,0.0115043,-10.42,0.0166174,0.0170398,2.50437e-07,0.02,0.68,0
0.00165151,-0.000643261,0.0276476,0.0102828,0.0113791,-0.00305368,0,0,0.0422981,-0.00285045,0,-0.0158791,0,0,0,0.028169,0.00976144,0.0113791,-9.68862,0.0164365,0.0176543,2.74618e-07,0.04,0.68,0
0.0025076,-0.000948881,0.0279047,0.00959232,0.0112491,-0.00296522,0,0,0.0433046,-0.00430765,0,-0.0154191,0,0,0,0.0283729,0.00912414,0.0112491,-8.97224,0.0162487,0.0182791,2.99437e-07,0.06,0.68,0
0.00338369,-0.00124203,0.0281489,0.00890326,0.0111157,-0.00285794,0,0,0.0442865,-0.00575225,0,-0.0148613,0,0,0,0.0285644,0.00848783,0.0111157,-8.27058,0.016056,0.0189001,3.24267e-07,0.08,0.68,0
0.00427907,-0.00152115,0.0283742,0.00822615,0.0109801,-0.00273105,0,0,0.0452247,-0.0071603,0,-0.0142015,0,0,0,0.0287379,0.00786252,0.0109801,-7.5841,0.0158602,0.0195043,3.48485e-07,0.1,0.68,0
0.00519268,-0.00178464,0.0285752,0.00757037,0.0108437,-0.00258502,0,0,0.046102,-0.00851062,0,-0.0134421,0,0,0,0.0288887,0.00725691,0.0108437,-6.91382,0.0156631,0.0200801,3.71508e-07,0.12,0.68,0
0.00612315,-0.00203093,0.0287477,0.00694361,0.0107074,-0.00242129,0,0,0.0469047,-0.00978581,0,-0.0125907,0,0,0,0.0290133,0.00667796,0.0107074,-6.26093,0.0154662,0.0206181,3.92833e-07,0.14,0.68,0
0.00706887,-0.00225855,0.0288884,0.00635159,0.010572,-0.00224198,0,0,0.0476226,-0.010973,0,-0.0116583,0,0,0,0.0291092,0.00613072,0.010572,-5.62635,0.0152707,0.0211112,4.12068e-07,0.16,0.68,0
0.00802805,-0.00246618,0.0289956,0.00579788,0.010438,-0.00204952,0,0,0.0482496,-0.0120644,0,-0.0106575,0,0,0,0.0291752,0.00561819,0.010438,-5.01037,0.0150772,0.0215551,4.28943e-07,0.18,0.68,0
0.00899885,-0.00265271,0.0290686,0.00528382,0.0103057,-0.00184634,0,0,0.0487835,-0.013057,0,-0.00960098,0,0,0,0.0292111,0.00514135,0.0103057,-4.41247,0.0148861,0.0219481,4.43323e-07,0.2,0.68,0
0.00997939,-0.0028172,0.0291082,0.00480868,0.0101751,-0.00163466,0,0,0.0492262,-0.0139526,0,-0.00850024,0,0,0,0.0292177,0.0046992,0.0101751,-3.83135,0.0146973,0.0222908,4.55208e-07,0.22,0.68,0
0.0109679,-0.00295895,0.0291161,0.00436973,0.0100457,-0.00141636,0,0,0.0495829,-0.0147576,0,-0.00736505,0,0,0,0.0291969,0.00428893,0.0100457,-3.26511,0.0145105,0.0225866,4.6472e-07,0.24,0.68,0
0.0119627,-0.00307742,0.029095,0.0039625,0.00991724,-0.00119301,0,0,0.0498621,-0.0154823,0,-0.00620366,0,0,0,0.0291515,0.003906,0.00991724,-2.71164,0.0143249,0.022841,4.72096e-07,0.26,0.68,0
0.0129624,-0.00317232,0.0290485,0.00358098,0.00978885,-0.000966053,0,0,0.0500751,-0.0161404,0,-0.00502348,0,0,0,0.0290851,0.00354439,0.00978885,-2.16923,0.0141394,0.0230615,4.77669e-07,0.28,0.68,0
0.0139657,-0.00324358,0.0289812,0.00321795,0.00965973,-0.000736997,0,0,0.0502357,-0.0167486,0,-0.00383238,0,0,0,0.0290022,0.00319688,0.00965973,-1.63725,0.0139529,0.0232574,4.81849e-07,0.3,0.68,0
0.0149718,-0.00329139,0.028898,0.0028653,0.00952898,-0.000507753,0,0,0.0503594,-0.0173256,0,-0.00264032,0,0,0,0.0289079,0.0028554,0.00952898,-1.11696,0.0137641,0.0234394,4.85098e-07,0.32,0.68,0
0.0159801,-0.00331629,0.0288044,0.00251456,0.0093957,-0.000280975,0,0,0.0504627,-0.017891,0,-0.00146107,0,0,0,0.0288074,0.00251156,0.0093957,-0.61226,0.0135716,0.0236186,4.87898e-07,0.34,0.68,0
0.0169903,-0.00331923,0.0287064,0.00215752,0.00925918,-6.03809e-05,0,0,0.0505628,-0.0184643,0,-0.000313981,0,0,0,0.0287065,0.00215738,0.00925918,-0.130309,0.0133744,0.0238064,4.90715e-07,0.36,0.68,0
0.0180026,-0.00330166,0.0286096,0.00178694,0.00911896,0.000148973,0,0,0.0506756,-0.0190632,0,0.000774658,0,0,0,0.0286104,0.00178612,0.00911896,0.318207,0.0131718,0.0240128,4.93958e-07,0.38,0.68,0
0.0190173,-0.00326565,0.0285193,0.00139753,0.00897505,0.000340514,0,0,0.0508151,-0.0197016,0,0.00177067,0,0,0,0.0285236,0.00139326,0.00897505,0.719198,0.012964,0.0242454,4.97935e-07,0.4,0.68,0
0.0200352,-0.00321402,0.0284398,0.000987037,0.00882806,0.000506198,0,0,0.0509906,-0.0203866,0,0.00263223,0,0,0,0.0284491,0.000977707,0.00882806,1.05599,0.0127516,0.0245081,5.02799e-07,0.42,0.68,0
0.021057,-0.00315037,0.0283737,0.000557734,0.00867943,0.000636946,0,0,0.0512051,-0.0211164,0,0.00331212,0,0,0,0.0283883,0.000543156,0.00867943,1.31108,0.012537,0.0247991,5.08499e-07,0.44,0.68,0
0.0220834,-0.00307911,0.0283212,0.00011782,0.00853172,0.000723816,0,0,0.0514528,-0.0218761,0,0.00376385,0,0,0,0.0283398,9.92566e-05,0.00853172,1.46916,0.0123236,0.0251097,5.14753e-07,0.46,0.68,0
0.0231151,-0.00300532,0.0282805,-0.000317872,0.00838878,0.000759926,0,0,0.0517184,-0.0226373,0,0.00395161,0,0,0,0.0283007,-0.000338051,0.00838878,1.52105,0.0121171,0.0254246,5.21074e-07,0.48,0.68,0
0.0241521,-0.00293447,0.0282479,-0.000729216,0.0082556,0.0007427,0,0,0.0519799,-0.0233605,0,0.00386204,0,0,0,0.0282669,-0.000748239,0.0082556,1.46724,0.0119247,0.0257235,5.26882e-07,0.5,0.68,0
0.0251943,-0.00287197,0.0282196,-0.00109463,0.0081375,0.000675202,0,0,0.0522135,-0.0240035,0,0.00351105,0,0,0,0.0282352,-0.00111018,0.0081375,1.31877,0.0117542,0.0259864,5.31666e-07,0.52,0.68,0
0.0262407,-0.00282269,0.028193,-0.00139612,0.00803908,0.000565562,0,0,0.0524003,-0.0245315,0,0.00294092,0,0,0,0.0282039,-0.00140693,0.00803908,1.09461,0.011612,0.0261977,5.35123e-07,0.54,0.68,0
0.0272903,-0.00279056,0.0281671,-0.00162257,0.00796337,0.0004245,0,0,0.0525298,-0.0249234,0,0.0022074,0,0,0,0.0281732,-0.00162862,0.00796337,0.816238,0.0115026,0.0263495,5.37192e-07,0.56,0.68,0
0.0283419,-0.00277845,0.0281421,-0.00176936,0.00791182,0.000262605,0,0,0.0525987,-0.0251711,0,0.00136554,0,0,0,0.0281444,-0.00177167,0.00791182,0.502971,0.0114282,0.0264395,5.37972e-07,0.58,0.68,0
0.0293942,-0.00278807,0.0281184,-0.00183551,0.00788486,8.90345e-05,0,0,0.0526071,-0.0252729,0,0.000462979,0,0,0,0.0281186,-0.00183577,0.00788486,0.170303,0.0113892,0.0264685,5.37585e-07,0.6,0.68,0
0.0304462,-0.00282004,0.0280958,-0.00182099,0.00788243,-8.77095e-05,0,0,0.0525547,-0.0252289,0,-0.000456089,0,0,0,0.028096,-0.00182125,0.00788243,-0.167977,0.0113857,0.0264367,5.36074e-07,0.62,0.68,0
0.0314964,-0.00287389,0.0280734,-0.00172688,0.00790396,-0.000258158,0,0,0.0524406,-0.0250402,0,-0.00134242,0,0,0,0.0280757,-0.00172912,0.00790396,-0.4963,0.0114168,0.0263441,5.33406e-07,0.64,0.68,0
0.0325438,-0.00294797,0.0280509,-0.00155813,0.00794782,-0.000411125,0,0,0.0522679,-0.0247155,0,-0.00213785,0,0,0,0.0280566,-0.00156383,0.00794782,-0.795356,0.0114802,0.0261935,5.29573e-07,0.66,0.68,0
0.0335871,-0.00303947,0.0280291,-0.00132664,0.00801074,-0.000535079,0,0,0.0520477,-0.0242772,0,-0.00278241,0,0,0,0.0280388,-0.00133639,0.00801074,-1.04389,0.0115711,0.0259942,5.24717e-07,0.68,0.68,0
0.0346257,-0.00314457,0.0280111,-0.00105183,0.00808778,-0.000620992,0,0,0.0518007,-0.023763,0,-0.00322916,0,0,0,0.0280244,-0.0010651,0.00808778,-1.2235,0.0116824,0.0257628,5.19201e-07,0.7,0.68,0
0.0356592,-0.00325882,0.0280013,-0.00075736,0.00817317,-0.000664991,0,0,0.0515531,-0.0232194,0,-0.00345795,0,0,0,0.0280166,-0.000772729,0.00817317,-1.32392,0.0118057,0.0255208,5.13573e-07,0.72,0.68,0
0.0366878,-0.00337765,0.028004,-0.000465956,0.00826142,-0.00066905,0,0,0.0513308,-0.0226912,0,-0.00347906,0,0,0,0.0280197,-0.00048167,0.00826142,-1.34547,0.0119332,0.0252899,5.08436e-07,0.74,0.68,0
0.0377124,-0.00349677,0.0280224,-0.000195411,0.0083481,-0.000639721,0,0,0.0511532,-0.0222131,0,-0.00332655,0,0,0,0.0280369,-0.000209907,0.0083481,-1.29805,0.0120584,0.0250876,5.04296e-07,0.76,0.68,0
0.0387339,-0.00361255,0.0280574,4.29216e-05,0.0084301,-0.000585845,0,0,0.051031,-0.0218067,0,-0.00304639,0,0,0,0.0280696,3.06756e-05,0.0084301,-1.19748,0.0121768,0.0249243,5.01475e-07,0.78,0.68,0
0.0397536,-0.0037221,0.0281077,0.000243552,0.00850538,-0.000516555,0,0,0.0509661,-0.0214808,0,-0.00268609,0,0,0,0.0281173,0.00023398,0.00850538,-1.06168,0.0122855,0.0248045,5.00084e-07,0.8,0.68,0
0.0407726,-0.0038233,0.0281705,0.00040549,0.00857279,-0.000439989,0,0,0.050954,-0.021235,0,-0.00228794,0,0,0,0.0281774,0.000398519,0.00857279,-0.907657,0.0123829,0.0247268,5.00059e-07,0.82,0.68,0
0.0417918,-0.0039147,0.0282417,0.000530848,0.00863177,-0.000362732,0,0,0.0509859,-0.0210624,0,-0.00188621,0,0,0,0.0282465,0.000526101,0.00863177,-0.749824,0.0124681,0.0246866,5.01207e-07,0.84,0.68,0
0.042812,-0.00399544,0.0283172,0.000623735,0.00868229,-0.000289651,0,0,0.0510508,-0.0209522,0,-0.00150619,0,0,0,0.0283202,0.000620706,0.00868229,-0.59918,0.0125411,0.0246769,5.03251e-07,0.86,0.68,0
0.0438338,-0.0040651,0.0283926,0.000689355,0.00872458,-0.000223941,0,0,0.0511368,-0.0208916,0,-0.00116449,0,0,0,0.0283944,0.000687544,0.00872458,-0.463114,0.0126022,0.0246897,5.05877e-07,0.88,0.68,0
0.0448575,-0.00412357,0.0284637,0.000733296,0.00875911,-0.000167271,0,0,0.051232,-0.0208671,0,-0.000869811,0,0,0,0.0284647,0.000732287,0.00875911,-0.345594,0.012652,0.0247167,5.08756e-07,0.9,0.68,0
0.0458831,-0.00417094,0.0285271,0.000760964,0.0087864,-0.000120002,0,0,0.0513257,-0.0208661,0,-0.00062401,0,0,0,0.0285276,0.000760446,0.0087864,-0.24762,0.0126915,0.0247502,5.11581e-07,0.92,0.68,0
0.0469105,-0.00420743,0.0285795,0.000777166,0.008807,-8.14249e-05,0,0,0.0514085,-0.0208776,0,-0.000423409,0,0,0,0.0285797,0.000776928,0.008807,-0.167801,0.0127212,0.0247835,5.14077e-07,0.94,0.68,0
0.0479394,-0.00423328,0.0286187,0.000785834,0.00882136,-5.00209e-05,0,0,0.0514731,-0.0208924,0,-0.000260109,0,0,0,0.0286188,0.000785744,0.00882136,-0.102971,0.012742,0.0248112,5.16024e-07,0.96,0.68,0
0.0489694,-0.00424869,0.0286429,0.000789859,0.00882982,-2.36972e-05,0,0,0.0515139,-0.0209039,0,-0.000123225,0,0,0,0.0286429,0.000789839,0.00882982,-0.0487468,0.0127542,0.0248293,5.17257e-07,0.98,0.68,0
0.05,-0.00425381,0.0286511,0.000791004,0.00883262,-4.92372e-05,0,0,0.0515279,-0.0209082,0,-0.000256033,0,0,0,0.0286511,0.000790917,0.00883262,-0.101259,0.0127582,0.0248358,5.17686e-07,1,0.68,0
0,0,0.0273464,0.0117199,0.0117199,-0.00341294,0,0,0.0406289,-2.1684e-19,0,-0.0177473,0,0,0,0.0280593,0.011007,0.0117199,-11.7982,0.0169287,0.0167073,2.38049e-07,0,0.7,0
0.000812578,-0.000354946,0.0272787,0.0109006,0.0114538,-0.00339597,0,0,0.0411448,-0.00143836,0,-0.017659,0,0,0,0.0279549,0.0102243,0.0114538,-11.2618,0.0165443,0.0171489,2.54537e-07,0.02,0.7,0
0.00164579,-0.000700842,0.0275482,0.0102005,0.0113246,-0.00332149,0,0,0.0421813,-0.00292275,0,-0.0172718,0,0,0,0.0281624,0.00958625,0.0113246,-10.4767,0.0163577,0.0177708,2.78956e-07,0.04,0.7,0
0.00249983,-0.00103598,0.0278113,0.00948789,0.0111898,-0.00322306,0,0,0.043216,-0.00442486,0,-0.0167599,0,0,0,0.0283617,0.00893749,0.0111898,-9.69087,0.016163,0.0184017,3.03934e-07,0.06,0.7,0
0.00337443,-0.00135841,0.0280609,0.00877559,0.0110509,-0.00309891,0,0,0.0442259,-0.00591593,0,-0.0161143,0,0,0,0.0285466,0.00828987,0.0110509,-8.90806,0.0159625,0.0190271,3.28809e-07,0.08,0.7,0
0.00426887,-0.00166609,0.0282903,0.00807569,0.0109098,-0.00294898,0,0,0.0451893,-0.00736867,0,-0.0153347,0,0,0,0.0287117,0.00765427,0.0109098,-8.13275,0.0157586,0.0196332,3.52927e-07,0.1,0.7,0
0.005182,-0.00195694,0.0284938,0.00739891,0.0107678,-0.0027748,0,0,0.0460875,-0.00875912,0,-0.014429,0,0,0,0.0288527,0.00704002,0.0107678,-7.36965,0.0155535,0.0202083,3.75695e-07,0.12,0.7,0
0.00611237,-0.00222904,0.0286669,0.00675391,0.0106263,-0.00257919,0,0,0.0469058,-0.0100681,0,-0.0134118,0,0,0,0.0289664,0.00645443,0.0106263,-6.6232,0.015349,0.0207431,3.96622e-07,0.14,0.7,0
0.00705823,-0.00248066,0.0288069,0.00614691,0.0104861,-0.00236571,0,0,0.0476339,-0.011282,0,-0.0123017,0,0,0,0.0290512,0.00590256,0.0104861,-5.89699,0.0151466,0.0212313,4.1535e-07,0.16,0.7,0
0.00801772,-0.00271032,0.0289123,0.00558151,0.0103481,-0.00213825,0,0,0.0482668,-0.0123932,0,-0.0111189,0,0,0,0.0291066,0.00538716,0.0103481,-5.19348,0.0149473,0.0216692,4.31664e-07,0.18,0.7,0
0.0089889,-0.00291686,0.0289832,0.00505883,0.0102126,-0.00190058,0,0,0.0488036,-0.0133998,0,-0.00988302,0,0,0,0.0291333,0.00490879,0.0102126,-4.51391,0.0147516,0.0220561,4.45494e-07,0.2,0.7,0
0.00996987,-0.00309939,0.0290212,0.00457769,0.0100797,-0.0016561,0,0,0.049248,-0.0143051,0,-0.00861174,0,0,0,0.0291329,0.00446599,0.0100797,-3.85842,0.0145595,0.0223941,4.56905e-07,0.22,0.7,0
0.0109588,-0.00325734,0.0290287,0.00413489,0.00994908,-0.00140774,0,0,0.0496071,-0.0151169,0,-0.00732026,0,0,0,0.0291081,0.00405554,0.00994908,-3.22636,0.0143709,0.0226873,4.66078e-07,0.24,0.7,0
0.0119541,-0.0033904,0.0290093,0.0037256,0.00982048,-0.00115797,0,0,0.049891,-0.0158467,0,-0.00602142,0,0,0,0.0290623,0.00367268,0.00982048,-2.61678,0.0141851,0.022942,4.73297e-07,0.26,0.7,0
0.0129545,-0.00349856,0.0289673,0.00334366,0.0096933,-0.000908947,0,0,0.0501125,-0.016509,0,-0.00472653,0,0,0,0.0289995,0.00331146,0.0096933,-2.02905,0.0140014,0.0231661,4.78918e-07,0.28,0.7,0
0.0139586,-0.00358207,0.0289075,0.00298198,0.00956685,-0.000662804,0,0,0.0502857,-0.0171206,0,-0.00344658,0,0,0,0.0289244,0.00296505,0.00956685,-1.46353,0.0138188,0.0233687,4.83353e-07,0.3,0.7,0
0.0149659,-0.00364151,0.0288351,0.00263294,0.00944042,-0.000421893,0,0,0.0504262,-0.0176994,0,-0.00219384,0,0,0,0.0288419,0.00262615,0.00944042,-0.922227,0.0136362,0.0235597,4.87039e-07,0.32,0.7,0
0.0159757,-0.00367777,0.0287556,0.00228888,0.00931335,-0.000189121,0,0,0.0505499,-0.0182636,0,-0.000983431,0,0,0,0.028757,0.00228752,0.00931335,-0.409386,0.0134526,0.0237492,4.90411e-07,0.34,0.7,0
0.0169879,-0.00369218,0.0286744,0.00194265,0.00918512,3.17836e-05,0,0,0.0506722,-0.0188304,0,0.000165275,0,0,0,0.0286745,0.00194261,0.00918512,0.0681234,0.0132674,0.0239466,4.9387e-07,0.36,0.7,0
0.0180026,-0.00368651,0.0285966,0.00158832,0.00905549,0.000236071,0,0,0.050807,-0.0194146,0,0.00122757,0,0,0,0.0285987,0.00158625,0.00905549,0.500752,0.0130801,0.0241599,4.97745e-07,0.38,0.7,0
0.0190202,-0.00366307,0.0285266,0.00122194,0.00892456,0.000417909,0,0,0.0509653,-0.0200268,0,0.00217313,0,0,0,0.028533,0.00121554,0.00892456,0.876661,0.012891,0.0243943,5.02262e-07,0.4,0.7,0
0.0200412,-0.0036248,0.0284675,0.00084247,0.008793,0.00057056,0,0,0.0511538,-0.0206714,0,0.00296691,0,0,0,0.0284793,0.000830691,0.008793,1.1827,0.012701,0.0246515,5.07502e-07,0.42,0.7,0
0.0210663,-0.00357521,0.028421,0.000452705,0.00866213,0.000686913,0,0,0.0513732,-0.0213445,0,0.00357195,0,0,0,0.0284379,0.000435845,0.00866213,1.40608,0.012512,0.0249286,5.13374e-07,0.44,0.7,0
0.0220961,-0.00351844,0.0283868,5.99823e-05,0.00853404,0.000760453,0,0,0.0516172,-0.0220325,0,0.00395436,0,0,0,0.0284072,3.95822e-05,0.00853404,1.53667,0.0123269,0.0252173,5.19617e-07,0.46,0.7,0
0.023131,-0.00345905,0.0283627,-0.00032384,0.00841166,0.000786604,0,0,0.0518728,-0.0227123,0,0.00409034,0,0,0,0.0283843,-0.000345393,0.00841166,1.56952,0.0121502,0.0255048,5.25828e-07,0.48,0.7,0
0.024171,-0.00340183,0.0283455,-0.000683596,0.00829856,0.000764038,0,0,0.0521219,-0.0233536,0,0.003973,0,0,0,0.0283656,-0.000703691,0.00829856,1.50662,0.0119868,0.0257754,5.31544e-07,0.5,0.7,0
0.0252159,-0.00335146,0.0283313,-0.00100324,0.00819842,0.000695395,0,0,0.0523455,-0.0239243,0,0.00361605,0,0,0,0.0283478,-0.00101972,0.00819842,1.35722,0.0118422,0.0260137,5.36344e-07,0.52,0.7,0
0.0262649,-0.0033122,0.0283171,-0.00126873,0.0081145,0.000586952,0,0,0.0525266,-0.0243964,0,0.00305215,0,0,0,0.0283287,-0.00128037,0.0081145,1.1361,0.0117209,0.0262066,5.39929e-07,0.54,0.7,0
0.027317,-0.00328757,0.0283005,-0.00146996,0.00804915,0.000447374,0,0,0.0526534,-0.0247497,0,0.00232634,0,0,0,0.0283072,-0.00147668,0.00804915,0.860751,0.0116265,0.0263458,5.42148e-07,0.56,0.7,0
0.028371,-0.00328018,0.0282803,-0.00160115,0.00800374,0.000286236,0,0,0.052719,-0.0249727,0,0.00148843,0,0,0,0.028283,-0.00160389,0.00800374,0.548773,0.011561,0.0264271,5.4297e-07,0.58,0.7,0
0.0294257,-0.00329169,0.028256,-0.00165995,0.00797881,0.000113142,0,0,0.0527206,-0.0250608,0,0.00058834,0,0,0,0.0282564,-0.00166038,0.00797881,0.216689,0.0115249,0.0264491,5.42425e-07,0.6,0.7,0
0.0304798,-0.00332272,0.0282273,-0.00164648,0.00797424,-6.2353e-05,0,0,0.0526579,-0.0250139,0,-0.000324235,0,0,0,0.0282274,-0.00164661,0.00797424,-0.119588,0.0115183,0.0264122,5.40552e-07,0.62,0.7,0
0.031532,-0.00337287,0.0281943,-0.00156345,0.00798926,-0.000230426,0,0,0.0525332,-0.024837,0,-0.00119821,0,0,0,0.0281961,-0.00156523,0.00798926,-0.443627,0.01154,0.0263186,5.37406e-07,0.64,0.7,0
0.0325811,-0.00344073,0.0281581,-0.00141719,0.00802227,-0.000381083,0,0,0.0523531,-0.0245426,0,-0.00198163,0,0,0,0.028163,-0.0014221,0.00802227,-0.738104,0.0115877,0.0261737,5.33097e-07,0.66,0.7,0
0.0336262,-0.00352394,0.0281207,-0.00121873,0.00807058,-0.000505117,0,0,0.0521302,-0.0241522,0,-0.00262661,0,0,0,0.0281294,-0.00122743,0.00807058,-0.986034,0.0116575,0.0259868,5.27845e-07,0.68,0.7,0
0.0346664,-0.00361936,0.0280854,-0.000983554,0.00813056,-0.000595674,0,0,0.0518826,-0.0236967,0,-0.0030975,0,0,0,0.0280976,-0.000995755,0.00813056,-1.17343,0.0117441,0.0257721,5.22004e-07,0.7,0.7,0
0.0357015,-0.00372335,0.0280565,-0.000729597,0.00819807,-0.000649605,0,0,0.0516319,-0.0232119,0,-0.00337795,0,0,0,0.0280711,-0.000744249,0.00819807,-1.2921,0.0118417,0.0255463,5.16033e-07,0.72,0.7,0
0.0367316,-0.0038321,0.0280379,-0.000474387,0.00826904,-0.00066789,0,0,0.0513989,-0.0227329,0,-0.00347303,0,0,0,0.0280535,-0.000490023,0.00826904,-1.34116,0.0119442,0.0253266,5.10419e-07,0.74,0.7,0
0.0377574,-0.00394197,0.0280325,-0.000232492,0.00834,-0.00065495,0,0,0.0512005,-0.0222885,0,-0.00340574,0,0,0,0.0280477,-0.00024766,0.00834,-1.3267,0.0120467,0.0251273,5.05586e-07,0.76,0.7,0
0.0387796,-0.00404974,0.0280418,-1.42086e-05,0.00840827,-0.000617321,0,0,0.0510471,-0.0218984,0,-0.00321007,0,0,0,0.0280553,-2.77851e-05,0.00840827,-1.25988,0.0121453,0.0249583,5.01828e-07,0.78,0.7,0
0.0397993,-0.00415273,0.0280653,0.000174538,0.00847194,-0.000562255,0,0,0.0509427,-0.0215733,0,-0.00292372,0,0,0,0.0280766,0.000163208,0.00847194,-1.15441,0.0122373,0.0248247,4.99287e-07,0.8,0.7,0
0.0408174,-0.00424883,0.0281012,0.000331547,0.00852981,-0.00049666,0,0,0.0508855,-0.0213155,0,-0.00258263,0,0,0,0.02811,0.000322667,0.00852981,-1.0243,0.0123208,0.0247273,4.97956e-07,0.82,0.7,0
0.0418347,-0.00433651,0.0281465,0.000457437,0.00858117,-0.000426458,0,0,0.0508698,-0.0211217,0,-0.00221758,0,0,0,0.028153,0.000450871,0.00858117,-0.882172,0.012395,0.0246634,4.97715e-07,0.84,0.7,0
0.0428521,-0.00441472,0.0281977,0.000554767,0.00862574,-0.000356286,0,0,0.0508871,-0.0209845,0,-0.00185269,0,0,0,0.0282023,0.000550175,0.00862574,-0.738314,0.0124594,0.0246282,4.98359e-07,0.86,0.7,0
0.0438702,-0.00448282,0.0282512,0.00062726,0.00866353,-0.00028943,0,0,0.0509279,-0.0208943,0,-0.00150504,0,0,0,0.0282542,0.000624228,0.00866353,-0.600229,0.012514,0.0246155,4.99639e-07,0.88,0.7,0
0.0448893,-0.00454047,0.0283033,0.000679175,0.00869474,-0.000227882,0,0,0.0509822,-0.0208405,0,-0.00118499,0,0,0,0.0283052,0.000677295,0.00869474,-0.472613,0.0125591,0.0246186,5.01288e-07,0.9,0.7,0
0.0459095,-0.00458752,0.0283507,0.000714794,0.00871965,-0.000172489,0,0,0.0510407,-0.0208126,0,-0.000896943,0,0,0,0.0283518,0.000713717,0.00871965,-0.357592,0.012595,0.0246311,5.03045e-07,0.92,0.7,0
0.0469309,-0.00462398,0.0283906,0.000738033,0.0087386,-0.000123134,0,0,0.0510953,-0.0208015,0,-0.000640296,0,0,0,0.0283912,0.000737484,0.0087386,-0.255125,0.0126224,0.0246472,5.04676e-07,0.94,0.7,0
0.0479533,-0.00464994,0.0284208,0.000752166,0.00875189,-7.89435e-05,0,0,0.0511391,-0.0207993,0,-0.000410506,0,0,0,0.028421,0.000751941,0.00875189,-0.163473,0.0126416,0.0246622,5.05987e-07,0.96,0.7,0
0.0489765,-0.00466547,0.0284395,0.00075964,0.00875976,-3.8493e-05,0,0,0.0511675,-0.0208003,0,-0.000200164,0,0,0,0.0284396,0.000759586,0.00875976,-0.0796781,0.012653,0.0246727,5.06832e-07,0.98,0.7,0
0.05,-0.00467063,0.0284459,0.000761962,0.00876236,-4.96876e-05,0,0,0.0511772,-0.020801,0,-0.000258376,0,0,0,0.028446,0.000761873,0.00876236,-0.102835,0.0126567,0.0246766,5.07131e-07,1,0.7,0
0,0,0.0272651,0.011685,0.011685,-0.00369337,0,0,0.0405081,2.1684e-19,0,-0.0192055,0,0,0,0.0280963,0.0108538,0.011685,-12.6832,0.0168784,0.0168422,2.43356e-07,0,0.72,0
0.000810162,-0.000384111,0.0271956,0.0108388,0.0114103,-0.00367415,0,0,0.0410417,-0.00148599,0,-0.0191056,0,0,0,0.027983,0.0100514,0.0114103,-12.096,0.0164816,0.0172922,2.60046e-07,0.02,0.72,0
0.00164167,-0.000760171,0.0274739,0.0101116,0.0112756,-0.00359715,0,0,0.0421154,-0.00302656,0,-0.0187052,0,0,0,0.0281896,0.00939581,0.0112756,-11.2537,0.016287,0.017928,2.85007e-07,0.04,0.72,0
0.00249478,-0.00112588,0.0277455,0.00936916,0.0111344,-0.00348819,0,0,0.0431888,-0.0045896,0,-0.0181386,0,0,0,0.0283853,0.00872932,0.0111344,-10.3944,0.016083,0.0185707,3.1041e-07,0.06,0.72,0
0.00336922,-0.00147867,0.0280024,0.00862645,0.0109886,-0.00334575,0,0,0.0442357,-0.0061417,0,-0.0173979,0,0,0,0.0285638,0.00806499,0.0109886,-9.52621,0.0158725,0.0192046,3.35537e-07,0.08,0.72,0
0.00426421,-0.0018159,0.0282371,0.00789773,0.0108404,-0.00317071,0,0,0.0452313,-0.00765106,0,-0.0164877,0,0,0,0.0287199,0.0074149,0.0108404,-8.65824,0.0156584,0.0198156,3.59691e-07,0.1,0.72,0
0.00517847,-0.00213501,0.0284435,0.00719544,0.0106917,-0.00296606,0,0,0.0461547,-0.00909021,0,-0.0154235,0,0,0,0.0288497,0.00678917,0.0106917,-7.79945,0.0154435,0.0203913,3.82264e-07,0.12,0.72,0
0.00611039,-0.00243365,0.028617,0.00652938,0.0105439,-0.00273634,0,0,0.0469901,-0.0104378,0,-0.0142289,0,0,0,0.028951,0.00619544,0.0105439,-6.95798,0.0152301,0.020923,4.02785e-07,0.14,0.72,0
0.00705808,-0.00270982,0.0287552,0.00590624,0.0103984,-0.00248694,0,0,0.0477275,-0.0116797,0,-0.0129321,0,0,0,0.0290227,0.00563869,0.0103984,-6.14043,0.0150199,0.0214048,4.2094e-07,0.16,0.72,0
0.00801949,-0.00296191,0.0288572,0.00532954,0.010256,-0.00222347,0,0,0.048363,-0.0128088,0,-0.011562,0,0,0,0.0290655,0.00512126,0.010256,-5.35157,0.0148142,0.0218344,4.36581e-07,0.18,0.72,0
0.0089926,-0.0031887,0.028924,0.00479992,0.0101172,-0.00195119,0,0,0.0488977,-0.0138249,0,-0.0101462,0,0,0,0.0290808,0.00464313,0.0101172,-4.59436,0.0146137,0.0222124,4.49716e-07,0.2,0.72,0
0.0099754,-0.00338941,0.0289581,0.00431554,0.00998208,-0.00167475,0,0,0.0493375,-0.014733,0,-0.00870868,0,0,0,0.0290713,0.00420225,0.00998208,-3.8702,0.0144186,0.0225419,4.60482e-07,0.22,0.72,0
0.0109661,-0.00356362,0.0289628,0.00387254,0.0098506,-0.00139803,0,0,0.0496917,-0.0155429,0,-0.00726975,0,0,0,0.0290405,0.00379489,0.0098506,-3.1794,0.0142286,0.0228283,4.69125e-07,0.24,0.72,0
0.0119631,-0.00371129,0.0289425,0.00346554,0.00972242,-0.00112424,0,0,0.0499723,-0.0162679,0,-0.00584606,0,0,0,0.028992,0.00341602,0.00972242,-2.5218,0.0140435,0.0230784,4.75971e-07,0.26,0.72,0
0.012965,-0.00383269,0.0289021,0.00308806,0.00959704,-0.00085609,0,0,0.0501931,-0.0169233,0,-0.00445167,0,0,0,0.0289304,0.0030597,0.00959704,-1.89737,0.0138624,0.0233003,4.81397e-07,0.28,0.72,0
0.0139708,-0.00392841,0.0288466,0.00273301,0.00947389,-0.000596048,0,0,0.0503691,-0.0175263,0,-0.00309945,0,0,0,0.0288602,0.00271942,0.00947389,-1.30688,0.0136845,0.0235031,4.8581e-07,0.3,0.72,0
0.0149798,-0.00399937,0.0287815,0.00239308,0.00935236,-0.000346651,0,0,0.0505156,-0.0180941,0,-0.00180259,0,0,0,0.028786,0.00238853,0.00935236,-0.752494,0.013509,0.0236959,4.8962e-07,0.32,0.72,0
0.0159914,-0.00404684,0.0287118,0.0020612,0.0092319,-0.000110787,0,0,0.0506478,-0.0186438,0,-0.000576094,0,0,0,0.0287123,0.00206074,0.0092319,-0.238175,0.013335,0.0238874,4.93214e-07,0.34,0.72,0
0.0170057,-0.00407245,0.0286426,0.00173106,0.00911211,0.000108076,0,0,0.0507794,-0.0191907,0,0.000561996,0,0,0,0.0286431,0.00173063,0.00911211,0.230093,0.0131619,0.0240855,4.9693e-07,0.36,0.72,0
0.0180226,-0.00407824,0.0285783,0.0013977,0.00899281,0.000305754,0,0,0.0509223,-0.0197473,0,0.00158992,0,0,0,0.0285818,0.00139426,0.00899281,0.644409,0.0129896,0.0242964,5.01028e-07,0.38,0.72,0
0.0190426,-0.00406673,0.0285224,0.00105808,0.00887414,0.000477356,0,0,0.0510854,-0.0203217,0,0.00248225,0,0,0,0.0285307,0.00104979,0.00887414,0.995455,0.0128182,0.0245234,5.05668e-07,0.4,0.72,0
0.020066,-0.00404088,0.0284771,0.00071179,0.00875668,0.000617518,0,0,0.0512732,-0.0209167,0,0.0032111,0,0,0,0.0284909,0.000698063,0.00875668,1.27345,0.0126485,0.0247671,5.10881e-07,0.42,0.72,0
0.0210935,-0.00400415,0.0284434,0.000361582,0.00864151,0.00072089,0,0,0.051485,-0.0215278,0,0.00374863,0,0,0,0.0284619,0.000343088,0.00864151,1.46955,0.0124822,0.0250238,5.16563e-07,0.44,0.72,0
0.0221254,-0.00396041,0.0284206,1.36559e-05,0.00853029,0.000782894,0,0,0.0517149,-0.0221432,0,0.00407105,0,0,0,0.0284422,-7.90422e-06,0.00853029,1.57747,0.0123215,0.0252863,5.22476e-07,0.46,0.72,0
0.0231621,-0.00391382,0.0284065,-0.000322596,0.00842519,0.000800636,0,0,0.0519515,-0.0227442,0,0.00416331,0,0,0,0.0284288,-0.000344892,0.00842519,1.59509,0.0121697,0.025544,5.28288e-07,0.48,0.72,0
0.0242035,-0.00386862,0.0283981,-0.000635566,0.00832875,0.000773726,0,0,0.0521802,-0.0233072,0,0.00402337,0,0,0,0.0284187,-0.00065617,0.00832875,1.52545,0.0120304,0.0257845,5.33622e-07,0.5,0.72,0
0.0252493,-0.00382894,0.0283916,-0.00091302,0.00824357,0.000704704,0,0,0.0523849,-0.0238071,0,0.00366446,0,0,0,0.0284085,-0.000929957,0.00824357,1.37676,0.0119074,0.0259954,5.38124e-07,0.52,0.72,0
0.0262989,-0.00379854,0.0283839,-0.00114388,0.008172,0.000598876,0,0,0.0525509,-0.0242213,0,0.00311416,0,0,0,0.028396,-0.00115602,0.008172,1.16143,0.011804,0.0261662,5.41514e-07,0.54,0.72,0
0.0273513,-0.00378055,0.0283722,-0.00131956,0.00811579,0.000463638,0,0,0.0526666,-0.0245319,0,0.00241092,0,0,0,0.0283794,-0.0013268,0.00811579,0.894386,0.0117228,0.0262891,5.43616e-07,0.56,0.72,0
0.0284055,-0.00377736,0.0283547,-0.00143453,0.00807606,0.000307619,0,0,0.0527245,-0.0247275,0,0.00159962,0,0,0,0.0283579,-0.00143771,0.00807606,0.591581,0.0116654,0.0263595,5.44343e-07,0.58,0.72,0
0.0294603,-0.0037905,0.0283305,-0.00148626,0.00805327,0.000140001,0,0,0.0527208,-0.0248028,0,0.000728007,0,0,0,0.0283311,-0.00148691,0.00805327,0.269019,0.0116325,0.0263754,5.43681e-07,0.6,0.72,0
0.0305144,-0.00382059,0.0282992,-0.00147496,0.00804726,-2.98479e-05,0,0,0.052655,-0.0247578,0,-0.000155209,0,0,0,0.0282992,-0.00147499,0.00804726,-0.0574377,0.0116238,0.0263374,5.41668e-07,0.62,0.72,0
0.0315665,-0.00386737,0.0282613,-0.00140371,0.00805729,-0.000192605,0,0,0.0525305,-0.0245986,0,-0.00100155,0,0,0,0.0282626,-0.00140496,0.00805729,-0.371981,0.0116383,0.0262483,5.38387e-07,0.64,0.72,0
0.0326156,-0.00392967,0.0282184,-0.00127873,0.00808191,-0.000339383,0,0,0.0523549,-0.0243377,0,-0.00176479,0,0,0,0.0282223,-0.00128264,0.00808191,-0.659107,0.0116739,0.0261139,5.33994e-07,0.66,0.72,0
0.0336607,-0.00400556,0.0281729,-0.00110962,0.00811898,-0.000462462,0,0,0.0521402,-0.0239944,0,-0.0024048,0,0,0,0.0281802,-0.00111692,0.00811898,-0.904578,0.0117274,0.025943,5.28724e-07,0.68,0.72,0
0.0347012,-0.00409243,0.028128,-0.000908831,0.00816576,-0.000556216,0,0,0.0519019,-0.0235939,0,-0.00289232,0,0,0,0.0281387,-0.000919481,0.00816576,-1.09699,0.011795,0.0257472,5.22905e-07,0.7,0.72,0
0.0357368,-0.0041873,0.0280877,-0.000690384,0.00821918,-0.000617858,0,0,0.051658,-0.0231649,0,-0.00321286,0,0,0,0.0281009,-0.000703643,0.00821918,-1.22937,0.0118722,0.0255402,5.16924e-07,0.72,0.72,0
0.0367675,-0.00428696,0.0280553,-0.000468058,0.00827617,-0.000647662,0,0,0.0514257,-0.022735,0,-0.00336784,0,0,0,0.02807,-0.000482757,0.00827617,-1.30008,0.0119545,0.0253355,5.11181e-07,0.74,0.72,0
0.0377938,-0.00438831,0.0280338,-0.000253761,0.00833401,-0.000648565,0,0,0.0512194,-0.0223282,0,-0.00337254,0,0,0,0.0280487,-0.000268623,0.00833401,-1.31273,0.012038,0.025145,5.06033e-07,0.76,0.72,0
0.0388163,-0.00448849,0.0280247,-5.64938e-05,0.00839045,-0.000625336,0,0,0.051049,-0.0219621,0,-0.00325175,0,0,0,0.0280386,-7.04124e-05,0.00839045,-1.27507,0.0121195,0.0249775,5.01743e-07,0.78,0.72,0
0.0398358,-0.00458503,0.0280281,0.000117945,0.00844383,-0.000583621,0,0,0.0509192,-0.0216473,0,-0.00303483,0,0,0,0.0280403,0.000105747,0.00844383,-1.1974,0.0121966,0.0248384,4.98461e-07,0.8,0.72,0
0.0408531,-0.00467592,0.0280431,0.000266718,0.00849295,-0.00052911,0,0,0.0508304,-0.0213882,0,-0.00275137,0,0,0,0.0280532,0.000256643,0.00849295,-1.09089,0.0122676,0.0247294,4.9622e-07,0.82,0.72,0
0.041869,-0.00475957,0.0280675,0.000389397,0.00853708,-0.000466947,0,0,0.0507792,-0.021184,0,-0.00242813,0,0,0,0.0280754,0.000381521,0.00853708,-0.966249,0.0123313,0.0246496,4.94954e-07,0.84,0.72,0
0.0428842,-0.00483483,0.0280987,0.000487329,0.0085758,-0.000401393,0,0,0.0507595,-0.02103,0,-0.00208725,0,0,0,0.0281045,0.000481495,0.0085758,-0.832689,0.0123873,0.0245959,4.94523e-07,0.86,0.72,0
0.0438994,-0.00490087,0.0281336,0.00056302,0.00860898,-0.000335672,0,0,0.0507639,-0.0209195,0,-0.0017455,0,0,0,0.0281377,0.000558934,0.00860898,-0.69744,0.0124352,0.0245638,4.94739e-07,0.88,0.72,0
0.0449148,-0.00495719,0.0281691,0.000619596,0.00863662,-0.000271962,0,0,0.0507845,-0.0208443,0,-0.0014142,0,0,0,0.0281718,0.000616912,0.00863662,-0.565536,0.0124751,0.024548,4.95391e-07,0.9,0.72,0
0.0459307,-0.00500345,0.0282025,0.000660353,0.00865887,-0.000211474,0,0,0.0508135,-0.0207961,0,-0.00109966,0,0,0,0.0282042,0.000658729,0.00865887,-0.439892,0.0125073,0.0245436,4.96268e-07,0.92,0.72,0
0.0469473,-0.00503949,0.0282313,0.000688399,0.0086759,-0.000154577,0,0,0.050844,-0.0207675,0,-0.000803802,0,0,0,0.0282321,0.000687531,0.0086759,-0.321544,0.0125319,0.0245455,4.97175e-07,0.94,0.72,0
0.0479645,-0.00506525,0.0282533,0.000706392,0.00868791,-0.000100966,0,0,0.05087,-0.0207519,0,-0.000525023,0,0,0,0.0282537,0.000706022,0.00868791,-0.209999,0.0125492,0.02455,4.97948e-07,0.96,0.72,0
0.0489821,-0.0050807,0.0282671,0.00071635,0.00869505,-4.9824e-05,0,0,0.0508874,-0.0207446,0,-0.000259085,0,0,0,0.0282672,0.00071626,0.00869505,-0.103616,0.0125595,0.0245539,4.98463e-07,0.98,0.72,0
0.05,-0.00508585,0.0282719,0.000719528,0.00869741,-4.95213e-05,0,0,0.0508935,-0.0207425,0,-0.000257511,0,0,0,0.0282719,0.000719439,0.00869741,-0.10298,0.0125629,0.0245556,4.9865e-07,1,0.72,0
0,0,0.02721,0.0116614,0.0116614,-0.00398448,0,0,0.0404263,8.67362e-19,0,-0.0207193,0,0,0,0.0281716,0.0106998,0.0116614,-13.568,0.0168443,0.0170114,2.50115e-07,0,0.74,0
0.000808527,-0.000414386,0.027138,0.0107789,0.0113751,-0.00396286,0,0,0.0409837,-0.00155006,0,-0.0206069,0,0,0,0.0280474,0.00986948,0.0113751,-12.9247,0.0164307,0.0174739,2.67177e-07,0.02,0.74,0
0.00163935,-0.000821904,0.0274279,0.0100158,0.0112331,-0.00388346,0,0,0.0421064,-0.00316495,0,-0.020194,0,0,0,0.0282548,0.00918896,0.0112331,-12.02,0.0162256,0.0181304,2.93007e-07,0.04,0.74,0
0.00249278,-0.00121956,0.0277103,0.00923466,0.0110835,-0.00376286,0,0,0.0432298,-0.00480699,0,-0.0195669,0,0,0,0.0284473,0.00849769,0.0110835,-11.0813,0.0160095,0.0187906,3.19112e-07,0.06,0.74,0
0.00336854,-0.00160408,0.0279761,0.0084534,0.0109289,-0.0035999,0,0,0.0443229,-0.00643619,0,-0.0187195,0,0,0,0.0286188,0.00781075,0.0109289,-10.1218,0.0157861,0.0194375,3.44683e-07,0.08,0.74,0
0.0042657,-0.00197213,0.0282168,0.00768927,0.0107718,-0.0033967,0,0,0.045357,-0.00801464,0,-0.0176628,0,0,0,0.0287643,0.00714182,0.0107718,-9.15574,0.0155593,0.0200554,3.68965e-07,0.1,0.74,0
0.00518282,-0.00232055,0.0284256,0.00695693,0.0106148,-0.00315819,0,0,0.0463082,-0.00951036,0,-0.0164226,0,0,0,0.0288806,0.00650198,0.0106148,-8.19732,0.0153324,0.020632,3.91336e-07,0.12,0.74,0
0.00611803,-0.00264655,0.028598,0.00626744,0.0104596,-0.00289122,0,0,0.0471597,-0.0108997,0,-0.0150343,0,0,0,0.0289663,0.00589917,0.0104596,-7.25885,0.0151084,0.0211587,4.1135e-07,0.14,0.74,0
0.00706921,-0.00294784,0.0287319,0.00562782,0.0103079,-0.00260345,0,0,0.0479023,-0.0121682,0,-0.0135379,0,0,0,0.0290216,0.00533809,0.0103079,-6.3502,0.0148892,0.0216311,4.28764e-07,0.16,0.74,0
0.00803412,-0.00322267,0.0288274,0.00504122,0.0101606,-0.0023025,0,0,0.0485338,-0.0133104,0,-0.011973,0,0,0,0.0290483,0.00482039,0.0101606,-5.47845,0.0146764,0.0220483,4.43518e-07,0.18,0.74,0
0.00901056,-0.00346985,0.0288867,0.00450744,0.0100183,-0.00199527,0,0,0.0490581,-0.0143281,0,-0.0103754,0,0,0,0.029049,0.00434522,0.0100183,-4.64803,0.0144708,0.0224123,4.55714e-07,0.2,0.74,0
0.00999644,-0.00368871,0.0289133,0.0040236,0.00988108,-0.0016876,0,0,0.0494839,-0.0152295,0,-0.00877551,0,0,0,0.0290272,0.0039097,0.00988108,-3.86127,0.0142727,0.022728,4.65578e-07,0.22,0.74,0
0.0109899,-0.00387906,0.0289117,0.00358488,0.00974898,-0.00138419,0,0,0.0498231,-0.0160267,0,-0.0071978,0,0,0,0.0289872,0.00350946,0.00974898,-3.11901,0.0140819,0.0230017,4.73425e-07,0.24,0.74,0
0.0119894,-0.00404112,0.028887,0.00318511,0.00962164,-0.00108877,0,0,0.05009,-0.016735,0,-0.00566159,0,0,0,0.0289331,0.00313907,0.00962164,-2.42134,0.0138979,0.023241,4.79623e-07,0.26,0.74,0
0.0129935,-0.00417549,0.0288446,0.00281733,0.00949858,-0.000804294,0,0,0.0502997,-0.0173713,0,-0.00418233,0,0,0,0.0288694,0.0027925,0.00949858,-1.7683,0.0137202,0.0234543,4.84569e-07,0.28,0.74,0
0.0140014,-0.00428312,0.0287899,0.00247426,0.00937926,-0.000533316,0,0,0.0504677,-0.017953,0,-0.00277324,0,0,0,0.0288007,0.00246346,0.00937926,-1.16053,0.0135478,0.0236503,4.88662e-07,0.3,0.74,0
0.0150122,-0.00436527,0.0287282,0.00214874,0.00926309,-0.000278267,0,0,0.0506094,-0.0184973,0,-0.00144699,0,0,0,0.0287311,0.00214583,0.00926309,-0.599756,0.01338,0.0238374,4.92283e-07,0.32,0.74,0
0.0160257,-0.00442352,0.0286645,0.00183412,0.00914957,-4.17485e-05,0,0,0.0507387,-0.0190202,0,-0.000217092,0,0,0,0.0286645,0.00183405,0.00914957,-0.089153,0.013216,0.0240232,4.95772e-07,0.34,0.74,0
0.0170418,-0.00445981,0.028603,0.00152467,0.00903831,0.000173265,0,0,0.0508683,-0.0195355,0,0.000900977,0,0,0,0.0286041,0.00152356,0.00903831,0.366595,0.0130553,0.0242142,4.9941e-07,0.36,0.74,0
0.0180605,-0.0044764,0.0285476,0.00121609,0.00892912,0.00036333,0,0,0.0510081,-0.0200539,0,0.00188932,0,0,0,0.0285525,0.00121126,0.00892912,0.761479,0.0128976,0.024415,5.034e-07,0.38,0.74,0
0.0190821,-0.00447594,0.028501,0.000905928,0.00882208,0.000524588,0,0,0.0511652,-0.020582,0,0.00272786,0,0,0,0.028511,0.00089596,0.00882208,1.08868,0.012743,0.0246279,5.07849e-07,0.4,0.74,0
0.0201071,-0.00446146,0.0284648,0.000593999,0.00871764,0.000652987,0,0,0.0513426,-0.0211215,0,0.00339553,0,0,0,0.0284801,0.000578708,0.00871764,1.34141,0.0125921,0.0248524,5.12756e-07,0.42,0.74,0
0.0211358,-0.00443632,0.0284393,0.000282721,0.0086166,0.000744696,0,0,0.051539,-0.0216681,0,0.00387242,0,0,0,0.028459,0.000263038,0.0086166,1.51397,0.0124462,0.025085,5.18012e-07,0.44,0.74,0
0.0221686,-0.00440417,0.0284235,-2.28427e-05,0.0085202,0.000796678,0,0,0.0517486,-0.0222119,0,0.00414273,0,0,0,0.0284458,-4.51372e-05,0.0085202,1.60297,0.012307,0.0253192,5.23407e-07,0.46,0.74,0
0.0232057,-0.00436882,0.0284153,-0.000315298,0.00843,0.000807321,0,0,0.0519618,-0.0227378,0,0.00419807,0,0,0,0.028438,-0.000337966,0.00843,1.6083,0.0121767,0.0255465,5.28661e-07,0.48,0.74,0
0.0242471,-0.00433412,0.0284117,-0.000585679,0.0083478,0.000776973,0,0,0.0521661,-0.0232271,0,0.00404026,0,0,0,0.0284325,-0.000606483,0.0083478,1.53375,0.0120579,0.0257569,5.33463e-07,0.5,0.74,0
0.0252924,-0.00430375,0.0284094,-0.000824543,0.00827545,0.000708224,0,0,0.0523482,-0.02366,0,0.00368276,0,0,0,0.0284265,-0.000841691,0.00827545,1.38697,0.0119534,0.0259405,5.37513e-07,0.52,0.74,0
0.026341,-0.00428105,0.0284052,-0.00102316,0.0082146,0.000605823,0,0,0.0524955,-0.0240182,0,0.00315028,0,0,0,0.0284176,-0.00103562,0.0082146,1.17885,0.0118655,0.0260885,5.40562e-07,0.54,0.74,0
0.0273922,-0.00426884,0.0283963,-0.00117448,0.00816654,0.000476293,0,0,0.0525973,-0.0242867,0,0.00247672,0,0,0,0.0284039,-0.00118215,0.00816654,0.922538,0.0117961,0.0261944,5.42431e-07,0.56,0.74,0
0.0284449,-0.00426929,0.0283807,-0.00127375,0.00813209,0.000327379,0,0,0.0526465,-0.0244552,0,0.00170237,0,0,0,0.0283843,-0.00127737,0.00813209,0.632429,0.0117464,0.0262537,5.4302e-07,0.58,0.74,0
0.0294981,-0.0042838,0.0283573,-0.0013187,0.00811159,0.000167508,0,0,0.052639,-0.0245188,0,0.000871041,0,0,0,0.0283583,-0.00131965,0.00811159,0.323395,0.0117167,0.0262646,5.42294e-07,0.6,0.74,0
0.0305505,-0.00431303,0.0283258,-0.00130962,0.00810486,5.34824e-06,0,0,0.0525745,-0.0244776,0,2.78108e-05,0,0,0,0.0283258,-0.00130962,0.00810486,0.01034,0.011707,0.0262277,5.40283e-07,0.62,0.74,0
0.031601,-0.00435682,0.0282868,-0.00124939,0.00811122,-0.000150598,0,0,0.0524565,-0.0243376,0,-0.000783109,0,0,0,0.0282875,-0.00125016,0.00811122,-0.292127,0.0117162,0.0261457,5.3708e-07,0.64,0.74,0
0.0326487,-0.00441424,0.0282417,-0.00114357,0.00812945,-0.000292459,0,0,0.0522919,-0.0241099,0,-0.00152079,0,0,0,0.0282446,-0.00114649,0.00812945,-0.570164,0.0117425,0.0260241,5.32841e-07,0.66,0.74,0
0.0336927,-0.00448372,0.0281931,-0.00100023,0.00815785,-0.000413569,0,0,0.0520916,-0.023811,0,-0.00215056,0,0,0,0.0281989,-0.00100609,0.00815785,-0.811469,0.0117836,0.0258704,5.27791e-07,0.68,0.74,0
0.0347324,-0.00456312,0.0281438,-0.000829417,0.00819432,-0.00050907,0,0,0.0518687,-0.0234617,0,-0.00264716,0,0,0,0.0281528,-0.000838359,0.00819432,-1.00629,0.0118362,0.0256945,5.22219e-07,0.7,0.74,0
0.0357675,-0.00464994,0.0280974,-0.000642246,0.00823654,-0.000576349,0,0,0.0516382,-0.0230848,0,-0.00299702,0,0,0,0.0281089,-0.000653799,0.00823654,-1.1484,0.0118972,0.0255073,5.16451e-07,0.72,0.74,0
0.0367979,-0.0047415,0.0280569,-0.000449697,0.00828215,-0.000615162,0,0,0.0514142,-0.0227028,0,-0.00319884,0,0,0,0.0280701,-0.000462966,0.00828215,-1.23566,0.0119631,0.0253197,5.10821e-07,0.74,0.74,0
0.037824,-0.0048351,0.0280249,-0.000261511,0.00832901,-0.00062737,0,0,0.0512093,-0.0223354,0,-0.00326232,0,0,0,0.0280388,-0.000275419,0.00832901,-1.26994,0.0120308,0.0251417,5.05629e-07,0.76,0.74,0
0.0388463,-0.00492823,0.0280031,-8.54117e-05,0.00837531,-0.000616404,0,0,0.0510323,-0.0219979,0,-0.0032053,0,0,0,0.0280166,-9.89322e-05,0.00837531,-1.25655,0.0120977,0.0249808,5.01107e-07,0.78,0.74,0
0.0398653,-0.00501862,0.027992,7.32275e-05,0.00841958,-0.000586592,0,0,0.0508884,-0.0217005,0,-0.00305028,0,0,0,0.0280044,6.09082e-05,0.00841958,-1.20311,0.0121616,0.0248422,4.97403e-07,0.8,0.74,0
0.0408818,-0.00510435,0.0279912,0.000211332,0.00846077,-0.000542532,0,0,0.0507792,-0.0214485,0,-0.00282117,0,0,0,0.0280018,0.00020074,0.00846077,-1.1184,0.0122211,0.0247283,4.94575e-07,0.82,0.74,0
0.0418965,-0.00518387,0.0279993,0.000327815,0.00849814,-0.000488592,0,0,0.0507031,-0.0212429,0,-0.00254068,0,0,0,0.028008,0.00031919,0.00849814,-1.01124,0.0122751,0.0246394,4.92597e-07,0.84,0.74,0
0.04291,-0.00525592,0.0280143,0.000423143,0.00853125,-0.000428575,0,0,0.0506561,-0.0210811,0,-0.00222859,0,0,0,0.028021,0.000416487,0.00853125,-0.889692,0.0123229,0.0245734,4.9138e-07,0.86,0.74,0
0.0439227,-0.0053196,0.0280339,0.000498866,0.00855984,-0.000365538,0,0,0.0506326,-0.0209585,0,-0.0019008,0,0,0,0.0280388,0.000494014,0.00855984,-0.760443,0.0123642,0.0245275,4.9079e-07,0.88,0.74,0
0.0449353,-0.00537424,0.0280556,0.00055718,0.00858384,-0.000301724,0,0,0.0506267,-0.0208693,0,-0.00156897,0,0,0,0.0280589,0.000553869,0.00858384,-0.628572,0.0123989,0.0244978,4.90668e-07,0.9,0.74,0
0.0459478,-0.00541936,0.0280771,0.00060054,0.00860329,-0.000238594,0,0,0.0506319,-0.0208071,0,-0.00124069,0,0,0,0.0280792,0.000598469,0.00860329,-0.49748,0.012427,0.0244804,4.90847e-07,0.92,0.74,0
0.0469605,-0.00545469,0.0280962,0.000631351,0.00861826,-0.000176899,0,0,0.0506426,-0.020766,0,-0.000919874,0,0,0,0.0280973,0.000630212,0.00861826,-0.369018,0.0124486,0.0244712,4.91172e-07,0.94,0.74,0
0.0479735,-0.00548002,0.0281111,0.000651714,0.00862885,-0.000116807,0,0,0.0506539,-0.0207406,0,-0.000607397,0,0,0,0.0281116,0.000651217,0.00862885,-0.243719,0.0124639,0.0244673,4.91507e-07,0.96,0.74,0
0.0489867,-0.00549525,0.0281206,0.00066325,0.00863516,-5.80356e-05,0,0,0.0506622,-0.020727,0,-0.000301785,0,0,0,0.0281207,0.000663127,0.00863516,-0.121103,0.012473,0.0244659,4.91751e-07,0.98,0.74,0
0.05,-0.00550033,0.0281239,0.00066698,0.00863726,-4.88771e-05,0,0,0.0506652,-0.0207227,0,-0.000254161,0,0,0,0.028124,0.000666893,0.00863726,-0.101994,0.012476,0.0244658,4.91845e-07,1,0.74,0
0,0,0.0271853,0.0116508,0.0116508,-0.00428955,0,0,0.0403895,-4.33681e-19,0,-0.0223057,0,0,0,0.028291,0.0105451,0.0116508,-14.4551,0.016829,0.0172197,2.58599e-07,0,0.76,0
0.000807791,-0.000446113,0.0271099,0.0107217,0.0113495,-0.00426528,0,0,0.0409772,-0.0016323,0,-0.0221795,0,0,0,0.0281536,0.00967803,0.0113495,-13.7491,0.0163937,0.0176991,2.76213e-07,0.02,0.76,0
0.00163909,-0.000886769,0.0274143,0.00991244,0.011198,-0.00418331,0,0,0.0421623,-0.0033425,0,-0.0217532,0,0,0,0.0283628,0.00896394,0.011198,-12.7749,0.0161749,0.0183839,3.03277e-07,0.04,0.76,0
0.00249428,-0.00131815,0.0277099,0.00908195,0.0110375,-0.00404922,0,0,0.043348,-0.00508455,0,-0.0210559,0,0,0,0.028552,0.00823982,0.0110375,-11.7484,0.0159431,0.0190679,3.30371e-07,0.06,0.76,0
0.00337301,-0.00173611,0.0279858,0.00825273,0.0108715,-0.00386226,0,0,0.044497,-0.00680893,0,-0.0200838,0,0,0,0.0287148,0.00752372,0.0108715,-10.689,0.0157033,0.0197313,3.56555e-07,0.08,0.76,0
0.00427416,-0.00213648,0.0282321,0.00744598,0.0107034,-0.00362638,0,0,0.0455746,-0.00846938,0,-0.0188572,0,0,0,0.0288466,0.00683148,0.0107034,-9.61753,0.0154605,0.0203572,3.80993e-07,0.1,0.76,0
0.00519599,-0.00251542,0.0284416,0.00667916,0.0105362,-0.00334926,0,0,0.0465539,-0.0100283,0,-0.0174161,0,0,0,0.0289453,0.00617537,0.0105362,-8.55424,0.015219,0.020933,4.0305e-07,0.12,0.76,0
0.00613632,-0.00286964,0.0286096,0.00596462,0.0103723,-0.00304076,0,0,0.0474171,-0.0114599,0,-0.0158119,0,0,0,0.0290108,0.00556342,0.0103723,-7.51628,0.0149822,0.0214511,4.22339e-07,0.14,0.76,0
0.00709268,-0.00319655,0.0287352,0.00530937,0.0102134,-0.00271141,0,0,0.0481567,-0.0127504,0,-0.0140993,0,0,0,0.0290449,0.00499964,0.0102134,-6.51688,0.0147526,0.0219087,4.38717e-07,0.16,0.76,0
0.00806258,-0.00349432,0.0288196,0.00471562,0.0100606,-0.00237115,0,0,0.0487734,-0.0138968,0,-0.01233,0,0,0,0.0290506,0.00448458,0.0100606,-5.5652,0.0145319,0.022307,4.52249e-07,0.18,0.76,0
0.00904362,-0.00376183,0.0288665,0.00418174,0.00991446,-0.00202855,0,0,0.0492752,-0.0149051,0,-0.0105485,0,0,0,0.029032,0.00401614,0.00991446,-4.66675,0.0143209,0.0226503,4.63159e-07,0.2,0.76,0
0.0100336,-0.00399859,0.0288808,0.00370334,0.00977524,-0.00169051,0,0,0.0496745,-0.0157869,0,-0.00879067,0,0,0,0.0289938,0.00359034,0.00977524,-3.82419,0.0141198,0.022945,4.71779e-07,0.22,0.76,0
0.0110306,-0.00420469,0.0288683,0.00327424,0.00964277,-0.00136231,0,0,0.0499864,-0.0165582,0,-0.00708401,0,0,0,0.0289406,0.00320193,0.00964277,-3.03827,0.0139284,0.0231988,4.78499e-07,0.24,0.76,0
0.012033,-0.00438069,0.028835,0.00288721,0.00951666,-0.00104784,0,0,0.0502277,-0.0172366,0,-0.00544876,0,0,0,0.0288773,0.00284496,0.00951666,-2.30874,0.0137463,0.0234203,4.83735e-07,0.26,0.76,0
0.0130397,-0.00452754,0.0287868,0.0025346,0.00939641,-0.000750001,0,0,0.0504149,-0.0178407,0,-0.00390001,0,0,0,0.0288082,0.00251319,0.00939641,-1.63511,0.0135726,0.023618,4.87899e-07,0.28,0.76,0
0.0140496,-0.00464653,0.0287292,0.00220882,0.00928141,-0.000471092,0,0,0.0505643,-0.0183887,0,-0.00244968,0,0,0,0.0287376,0.00220045,0.00928141,-1.01734,0.0134065,0.0238002,4.91379e-07,0.3,0.76,0
0.0150623,-0.00473926,0.0286675,0.00190269,0.00917106,-0.000213156,0,0,0.0506907,-0.0188977,0,-0.00110841,0,0,0,0.0286692,0.001901,0.00917106,-0.456267,0.0132471,0.0239746,4.94523e-07,0.32,0.76,0
0.0160773,-0.00480765,0.0286062,0.00160983,0.0090648,2.17312e-05,0,0,0.0508075,-0.0193829,0,0.000113002,0,0,0,0.0286062,0.00160981,0.0090648,0.0461213,0.0130936,0.0241479,4.97627e-07,0.34,0.76,0
0.0170946,-0.00485387,0.028549,0.00132493,0.00896219,0.00023127,0,0,0.0509258,-0.0198569,0,0.00120261,0,0,0,0.028551,0.00132297,0.00896219,0.486684,0.0129454,0.0243253,5.0092e-07,0.36,0.76,0
0.0181143,-0.0048804,0.0284991,0.00104411,0.00886298,0.000412871,0,0,0.051054,-0.020329,0,0.00214693,0,0,0,0.0285054,0.00103791,0.00886298,0.861358,0.0128021,0.0245104,5.04555e-07,0.38,0.76,0
0.0191367,-0.00489001,0.0284586,0.00076523,0.00876713,0.000563711,0,0,0.0511977,-0.020805,0,0.0029313,0,0,0,0.02847,0.00075376,0.00876713,1.16564,0.0126636,0.0247043,5.08598e-07,0.4,0.76,0
0.0201622,-0.00488574,0.0284282,0.000488119,0.0086749,0.000680941,0,0,0.0513586,-0.0212856,0,0.00354089,0,0,0,0.0284448,0.000471534,0.0086749,1.39528,0.0125304,0.0249063,5.13026e-07,0.42,0.76,0
0.0211911,-0.00487088,0.028408,0.000214744,0.00858683,0.00076202,0,0,0.0515351,-0.0217674,0,0.0039625,0,0,0,0.0284286,0.000194163,0.00858683,1.54711,0.0124032,0.0251129,5.17727e-07,0.44,0.76,0
0.0222236,-0.00484889,0.0283967,-5.08648e-05,0.00850376,0.00080514,0,0,0.0517217,-0.022242,0,0.00418673,0,0,0,0.0284195,-7.36341e-05,0.00850376,1.61989,0.0122832,0.0253186,5.22516e-07,0.46,0.76,0
0.02326,-0.00482333,0.0283922,-0.000302925,0.00842678,0.000809684,0,0,0.05191,-0.0226972,0,0.00421036,0,0,0,0.028415,-0.000325754,0.00842678,1.61499,0.012172,0.0255163,5.27153e-07,0.48,0.76,0
0.0243,-0.0047977,0.0283916,-0.000534492,0.00835712,0.000776583,0,0,0.0520896,-0.0231182,0,0.00403823,0,0,0,0.0284124,-0.000555326,0.00835712,1.53675,0.0120714,0.025698,5.31378e-07,0.5,0.76,0
0.0253435,-0.00477534,0.0283918,-0.000738243,0.00829607,0.000708519,0,0,0.0522489,-0.0234892,0,0.0036843,0,0,0,0.028409,-0.000755466,0.00829607,1.39248,0.0119832,0.0258557,5.34935e-07,0.52,0.76,0
0.02639,-0.00475927,0.0283899,-0.000907329,0.00824476,0.000609881,0,0,0.0523773,-0.0237954,0,0.00317138,0,0,0,0.0284026,-0.00092002,0.00824476,1.19204,0.0119091,0.0259821,5.37606e-07,0.54,0.76,0
0.0274386,-0.00475202,0.0283831,-0.00103611,0.0082041,0.000486524,0,0,0.0524654,-0.0240245,0,0.00252992,0,0,0,0.0283912,-0.00104415,0.0082041,0.94719,0.0118504,0.0260719,5.39224e-07,0.56,0.76,0
0.0284886,-0.00475557,0.0283695,-0.00112068,0.00817466,0.000345384,0,0,0.0525067,-0.0241679,0,0.001796,0,0,0,0.0283736,-0.00112473,0.00817466,0.670916,0.0118078,0.0261211,5.39688e-07,0.58,0.76,0
0.0295389,-0.00477125,0.028348,-0.00115918,0.00815663,0.00019405,0,0,0.0524975,-0.0242211,0,0.00100906,0,0,0,0.0283492,-0.00116046,0.00815663,0.376777,0.0117818,0.0261283,5.38956e-07,0.6,0.76,0
0.0305885,-0.0047997,0.028318,-0.00115192,0.00814983,4.033e-05,0,0,0.0524373,-0.0241845,0,0.000209716,0,0,0,0.0283181,-0.00115198,0.00814983,0.0784098,0.011772,0.0260937,5.37052e-07,0.62,0.76,0
0.0316364,-0.00484087,0.0282802,-0.00110144,0.00815364,-0.000108169,0,0,0.0523292,-0.0240632,0,-0.000562479,0,0,0,0.0282806,-0.00110184,0.00815364,-0.210931,0.0117775,0.0260201,5.34059e-07,0.64,0.76,0
0.0326817,-0.00489407,0.0282361,-0.00101246,0.00816708,-0.000244488,0,0,0.0521793,-0.0238668,0,-0.00127134,0,0,0,0.0282381,-0.0010145,0.00816708,-0.478891,0.0117969,0.025912,5.30119e-07,0.66,0.76,0
0.0337236,-0.004958,0.0281876,-0.000891598,0.00818879,-0.000362776,0,0,0.0519968,-0.023609,0,-0.00188644,0,0,0,0.0281921,-0.000896123,0.00818879,-0.714644,0.0118283,0.0257759,5.25435e-07,0.68,0.76,0
0.0347615,-0.0050309,0.0281375,-0.000746974,0.00821715,-0.00045871,0,0,0.0517929,-0.0233067,0,-0.00238529,0,0,0,0.0281448,-0.000754257,0.00821715,-0.909601,0.0118692,0.0256198,5.20251e-07,0.7,0.76,0
0.0357953,-0.00511069,0.0280887,-0.000587453,0.00825038,-0.00052978,0,0,0.0515797,-0.0229784,0,-0.00275485,0,0,0,0.0280985,-0.000597237,0.00825038,-1.05803,0.0119172,0.0254526,5.14844e-07,0.72,0.76,0
0.0368247,-0.00519507,0.0280441,-0.000421843,0.00828666,-0.000575354,0,0,0.0513692,-0.0226421,0,-0.00299184,0,0,0,0.0280557,-0.000433468,0.00828666,-1.15744,0.0119696,0.0252833,5.09491e-07,0.74,0.76,0
0.03785,-0.00528173,0.0280059,-0.000258113,0.00832432,-0.00059651,0,0,0.051172,-0.0223143,0,-0.00310185,0,0,0,0.0280184,-0.000270697,0.00832432,-1.20851,0.012024,0.0251198,5.04444e-07,0.76,0.76,0
0.0388716,-0.00536841,0.0279758,-0.000102807,0.00836188,-0.000595661,0,0,0.0509961,-0.0220082,0,-0.00309744,0,0,0,0.0279884,-0.000115438,0.00836188,-1.21475,0.0120783,0.0249689,4.99908e-07,0.78,0.76,0
0.0398899,-0.00545305,0.0279545,3.92578e-05,0.00839814,-0.000576084,0,0,0.0508467,-0.0217331,0,-0.00299564,0,0,0,0.0279664,2.73743e-05,0.00839814,-1.18173,0.0121306,0.0248352,4.96024e-07,0.8,0.76,0
0.0409055,-0.00553386,0.0279422,0.000165034,0.00843217,-0.000541445,0,0,0.050726,-0.0214945,0,-0.00281551,0,0,0,0.0279527,0.000154484,0.00843217,-1.11627,0.0121798,0.0247216,4.92862e-07,0.82,0.76,0
0.0419189,-0.00560928,0.0279379,0.000273076,0.00846328,-0.000495394,0,0,0.0506339,-0.0212945,0,-0.00257605,0,0,0,0.0279467,0.000264208,0.00846328,-1.02556,0.0122247,0.0246288,4.90427e-07,0.84,0.76,0
0.0429308,-0.00567807,0.0279402,0.000363251,0.00849104,-0.000441263,0,0,0.0505679,-0.0211323,0,-0.00229457,0,0,0,0.0279473,0.000356192,0.00849104,-0.916485,0.0122648,0.024556,4.88669e-07,0.86,0.76,0
0.0439416,-0.00573921,0.0279475,0.000436396,0.00851518,-0.000381874,0,0,0.0505242,-0.0210048,0,-0.00198574,0,0,0,0.0279528,0.000431097,0.00851518,-0.795101,0.0122997,0.0245012,4.87498e-07,0.88,0.76,0
0.0449518,-0.00579196,0.0279579,0.000493973,0.00853557,-0.00031945,0,0,0.0504981,-0.0209081,0,-0.00166114,0,0,0,0.0279616,0.000490258,0.00853557,-0.666322,0.0123292,0.024462,4.86798e-07,0.9,0.76,0
0.0459616,-0.00583573,0.0279695,0.00053775,0.00855216,-0.0002556,0,0,0.050485,-0.0208375,0,-0.00132912,0,0,0,0.0279718,0.000535368,0.00855216,-0.533803,0.0123531,0.0244351,4.86445e-07,0.92,0.76,0
0.0469712,-0.00587013,0.0279804,0.000569531,0.00856499,-0.000191362,0,0,0.0504801,-0.0207882,0,-0.00099508,0,0,0,0.0279818,0.000568195,0.00856499,-0.399969,0.0123716,0.0244179,4.86316e-07,0.94,0.76,0
0.0479808,-0.00589487,0.0279894,0.000590937,0.00857409,-0.000127282,0,0,0.0504797,-0.0207562,0,-0.000661867,0,0,0,0.02799,0.000590346,0.00857409,-0.266165,0.0123848,0.0244075,4.86308e-07,0.96,0.76,0
0.0489904,-0.00590978,0.0279952,0.000603241,0.00857953,-6.35269e-05,0,0,0.0504807,-0.0207383,0,-0.00033034,0,0,0,0.0279953,0.000603094,0.00857953,-0.132878,0.0123927,0.0244022,4.86337e-07,0.98,0.76,0
0.05,-0.00591476,0.0279972,0.00060725,0.00858134,-4.78883e-05,0,0,0.0504813,-0.0207326,0,-0.000249019,0,0,0,0.0279973,0.000607166,0.00858134,-0.100175,0.0123953,0.0244007,4.86359e-07,1,0.76,0
0,0,0.0271963,0.0116555,0.0116555,-0.00461229,0,0,0.0404059,-2.1684e-19,0,-0.0239839,0,0,0,0.028462,0.0103898,0.0116555,-15.3461,0.0168358,0.0174738,2.69178e-07,0,0.78,0
0.000808117,-0.000479678,0.0271167,0.0106679,0.0113354,-0.00458488,0,0,0.0410315,-0.0017355,0,-0.0238414,0,0,0,0.0283084,0.00947624,0.0113354,-14.5692,0.0163733,0.0179748,2.87543e-07,0.02,0.78,0
0.00164126,-0.000955604,0.0274386,0.0097999,0.0111715,-0.00449983,0,0,0.0422943,-0.00356629,0,-0.0233991,0,0,0,0.0285202,0.00871827,0.0111715,-13.5158,0.0161367,0.0186964,3.16261e-07,0.04,0.78,0
0.00249989,-0.00142294,0.0277495,0.00890717,0.010997,-0.00434914,0,0,0.0435564,-0.00543353,0,-0.0226155,0,0,0,0.0287049,0.00795176,0.010997,-12.3899,0.0158845,0.0194105,3.44648e-07,0.06,0.78,0
0.00338352,-0.00187644,0.028036,0.00801887,0.0108164,-0.00413288,0,0,0.0447707,-0.00727371,0,-0.021491,0,0,0,0.0288557,0.00719913,0.0108164,-11.2187,0.0156238,0.0200936,3.71566e-07,0.08,0.78,0
0.00429072,-0.0023109,0.0282865,0.00716169,0.0106344,-0.00385778,0,0,0.0458953,-0.00902918,0,-0.0200604,0,0,0,0.0289689,0.00647923,0.0106344,-10.032,0.0153609,0.0207269,3.96079e-07,0.1,0.78,0
0.00521933,-0.00272168,0.0284929,0.00635644,0.0104548,-0.00353543,0,0,0.0468991,-0.0106558,0,-0.0183842,0,0,0,0.0290439,0.00580551,0.0104548,-8.85729,0.0151014,0.0212978,4.17564e-07,0.12,0.78,0
0.00616668,-0.00310495,0.0286515,0.00561654,0.0102804,-0.00317981,0,0,0.0477648,-0.012126,0,-0.016535,0,0,0,0.0290824,0.00518565,0.0102804,-7.71705,0.0148495,0.0218005,4.35741e-07,0.14,0.78,0
0.00712992,-0.00345786,0.0287623,0.00494822,0.0101132,-0.00280498,0,0,0.0484878,-0.0134288,0,-0.0145859,0,0,0,0.0290882,0.00462229,0.0101132,-6.62784,0.0146079,0.0222349,4.50626e-07,0.16,0.78,0
0.00810619,-0.00377855,0.0288289,0.00435184,0.00995422,-0.00242344,0,0,0.0490742,-0.0145662,0,-0.0126019,0,0,0,0.0290665,0.0041142,0.00995422,-5.60033,0.0143783,0.0226054,4.62461e-07,0.18,0.78,0
0.00909288,-0.00406605,0.0288569,0.00382352,0.00980412,-0.00204535,0,0,0.0495372,-0.0155496,0,-0.0106358,0,0,0,0.0290229,0.00365751,0.00980412,-4.64033,0.0141615,0.0229188,4.71628e-07,0.2,0.78,0
0.0100877,-0.00432019,0.028853,0.00335672,0.00966292,-0.00167834,0,0,0.0498942,-0.0163961,0,-0.00872737,0,0,0,0.028963,0.00324671,0.00966292,-3.75003,0.0139576,0.0231839,4.78584e-07,0.22,0.78,0
0.0110887,-0.00454138,0.0288244,0.00294343,0.00953035,-0.00132783,0,0,0.0501646,-0.017126,0,-0.0069047,0,0,0,0.0288924,0.00287548,0.00953035,-2.92931,0.0137661,0.02341,4.83804e-07,0.24,0.78,0
0.0120943,-0.00473058,0.028778,0.0025751,0.00940593,-0.000997458,0,0,0.0503674,-0.0177601,0,-0.00518678,0,0,0,0.0288159,0.00253719,0.00940593,-2.17686,0.0135863,0.0236061,4.87747e-07,0.26,0.78,0
0.0131033,-0.00488912,0.0287201,0.00224325,0.009289,-0.000689665,0,0,0.0505208,-0.0183189,0,-0.00358626,0,0,0,0.028738,0.0022253,0.009289,-1.49108,0.0134174,0.0237811,4.90834e-07,0.28,0.78,0
0.0141151,-0.00501867,0.0286564,0.00193986,0.00917887,-0.00040615,0,0,0.0506415,-0.0188214,0,-0.00211198,0,0,0,0.0286625,0.00193369,0.00917887,-0.870754,0.0132584,0.023943,4.93435e-07,0.3,0.78,0
0.015129,-0.00512118,0.0285917,0.00165768,0.00907482,-0.00014829,0,0,0.0507439,-0.0192846,0,-0.00077111,0,0,0,0.0285925,0.00165686,0.00907482,-0.31544,0.0131081,0.0240987,4.95864e-07,0.32,0.78,0
0.0161449,-0.00519884,0.0285302,0.00139047,0.0089762,8.25673e-05,0,0,0.0508404,-0.0197229,0,0.00042935,0,0,0,0.0285304,0.00139022,0.0089762,0.174309,0.0129656,0.0242539,4.98368e-07,0.34,0.78,0
0.0171626,-0.00525408,0.028475,0.00113321,0.00888247,0.000284933,0,0,0.0509406,-0.0201481,0,0.00148165,0,0,0,0.028478,0.00113024,0.00888247,0.597002,0.0128302,0.0244129,5.01128e-07,0.36,0.78,0
0.0181825,-0.00528956,0.0284285,0.000882321,0.00879324,0.000457118,0,0,0.0510516,-0.0205684,0,0.00237701,0,0,0,0.0284361,0.000874737,0.00879324,0.950452,0.0127014,0.0245782,5.0425e-07,0.38,0.78,0
0.0192047,-0.00530814,0.028392,0.000635806,0.00870834,0.000597297,0,0,0.0511775,-0.0209886,0,0.00310595,0,0,0,0.0284048,0.000622958,0.00870834,1.23221,0.0125787,0.0247503,5.07766e-07,0.4,0.78,0
0.0202296,-0.00531289,0.0283659,0.000393406,0.00862779,0.000703691,0,0,0.0513191,-0.0214094,0,0.00365919,0,0,0,0.0283836,0.000375715,0.00862779,1.44015,0.0124624,0.0249282,5.11634e-07,0.42,0.78,0
0.0212575,-0.00530702,0.0283497,0.000156618,0.00855189,0.000774832,0,0,0.0514742,-0.0218277,0,0.00402913,0,0,0,0.028371,0.000135339,0.00855189,1.57308,0.0123527,0.0251086,5.15741e-07,0.44,0.78,0
0.0222885,-0.00529385,0.0283418,-7.14207e-05,0.00848113,0.0008099,0,0,0.0516379,-0.0222366,0,0.00421148,0,0,0,0.0283649,-9.44875e-05,0.00848113,1.63141,0.0122505,0.0252868,5.1992e-07,0.46,0.78,0
0.023323,-0.00527671,0.0283402,-0.000286224,0.00841621,0.000809041,0,0,0.0518025,-0.0226263,0,0.00420701,0,0,0,0.0283631,-0.000309071,0.00841621,1.61757,0.0121567,0.0254568,5.23961e-07,0.48,0.78,0
0.0243606,-0.00525884,0.0283422,-0.000482418,0.00835792,0.000773642,0,0,0.051959,-0.0229849,0,0.00402294,0,0,0,0.0283629,-0.000503167,0.00835792,1.53632,0.0120726,0.0256122,5.27642e-07,0.5,0.78,0
0.0254013,-0.00524332,0.0283447,-0.000654332,0.00830711,0.000706459,0,0,0.0520978,-0.0232998,0,0.00367358,0,0,0,0.0283619,-0.000671532,0.00830711,1.3947,0.0119992,0.0257464,5.30743e-07,0.52,0.78,0
0.0264446,-0.00523287,0.028345,-0.000796625,0.00826453,0.000611607,0,0,0.0522094,-0.023559,0,0.00318036,0,0,0,0.0283579,-0.000809455,0.00826453,1.20178,0.0119377,0.0258536,5.33072e-07,0.54,0.78,0
0.0274897,-0.00522982,0.0283407,-0.000904851,0.00823076,0.000494391,0,0,0.0522859,-0.0237526,0,0.00257083,0,0,0,0.0283491,-0.000913206,0.00823076,0.968206,0.0118889,0.0259291,5.34481e-07,0.56,0.78,0
0.028536,-0.005236,0.0283298,-0.000975906,0.00820616,0.00036102,0,0,0.0523214,-0.0238734,0,0.00187731,0,0,0,0.0283342,-0.000980353,0.00820616,0.705692,0.0118533,0.0259699,5.3487e-07,0.58,0.78,0
0.0295826,-0.00525265,0.028311,-0.00100832,0.00819081,0.000218265,0,0,0.0523125,-0.0239177,0,0.00113498,0,0,0,0.0283126,-0.00100995,0.00819081,0.426501,0.0118312,0.0259746,5.34199e-07,0.6,0.78,0
0.0306285,-0.00528042,0.0282841,-0.00100242,0.0081845,7.30753e-05,0,0,0.0522589,-0.023886,0,0.000379991,0,0,0,0.0282843,-0.0010026,0.0081845,0.142962,0.0118221,0.0259434,5.3248e-07,0.62,0.78,0
0.0316729,-0.00531934,0.0282494,-0.000960335,0.00818671,-6.78027e-05,0,0,0.0521629,-0.0237823,0,-0.000352574,0,0,0,0.0282495,-0.000960492,0.00818671,-0.132996,0.0118252,0.0258787,5.29784e-07,0.64,0.78,0
0.032715,-0.00536891,0.0282081,-0.00088596,0.00819663,-0.000198219,0,0,0.0520297,-0.0236147,0,-0.00103074,0,0,0,0.0282094,-0.000887311,0.00819663,-0.390335,0.0118396,0.0257842,5.26234e-07,0.66,0.78,0
0.0337541,-0.00542808,0.028162,-0.000784682,0.00821319,-0.00031299,0,0,0.0518669,-0.0233945,0,-0.00162755,0,0,0,0.0281654,-0.000788065,0.00821319,-0.619423,0.0118635,0.0256653,5.22001e-07,0.68,0.78,0
0.0347897,-0.00549539,0.0281135,-0.000663001,0.00823514,-0.000408212,0,0,0.0516836,-0.0231352,0,-0.0021227,0,0,0,0.0281192,-0.000668791,0.00823514,-0.812557,0.0118952,0.0255285,5.17291e-07,0.7,0.78,0
0.0358214,-0.00556908,0.028065,-0.000528007,0.00826109,-0.000481455,0,0,0.0514901,-0.0228517,0,-0.00250357,0,0,0,0.0280731,-0.000536112,0.00826109,-0.964395,0.0119327,0.025381,5.12334e-07,0.72,0.78,0
0.0368493,-0.00564718,0.028019,-0.000386777,0.00828966,-0.000531818,0,0,0.0512962,-0.0225587,0,-0.00276545,0,0,0,0.0280289,-0.00039673,0.00828966,-1.0722,0.011974,0.0252301,5.07362e-07,0.74,0.78,0
0.0378733,-0.00572767,0.0279776,-0.000245812,0.00831954,-0.0005598,0,0,0.051111,-0.0222699,0,-0.00291096,0,0,0,0.0279887,-0.000256911,0.00831954,-1.13584,0.0120171,0.0250823,5.02588e-07,0.76,0.78,0
0.0388937,-0.00580855,0.0279425,-0.000110599,0.00834956,-0.000567046,0,0,0.0509415,-0.0219964,0,-0.00294864,0,0,0,0.0279539,-0.000122056,0.00834956,-1.15751,0.0120605,0.0249435,4.98191e-07,0.78,0.78,0
0.039911,-0.00588794,0.0279144,1.46488e-05,0.00837873,-0.000556007,0,0,0.0507929,-0.0217466,0,-0.00289124,0,0,0,0.0279255,3.57272e-06,0.00837873,-1.14123,0.0121026,0.0248179,4.94302e-07,0.8,0.78,0
0.0409254,-0.00596414,0.0278938,0.000127073,0.00840627,-0.000529579,0,0,0.0506677,-0.0215259,0,-0.00275381,0,0,0,0.0279039,0.000116976,0.00840627,-1.09224,0.0121424,0.0247082,4.90998e-07,0.82,0.78,0
0.0419377,-0.00603565,0.0278803,0.000225084,0.00843161,-0.000490782,0,0,0.0505666,-0.021337,0,-0.00255207,0,0,0,0.027889,0.000216377,0.00843161,-1.01637,0.012179,0.0246156,4.88304e-07,0.84,0.78,0
0.0429481,-0.00610122,0.027873,0.000308178,0.00845434,-0.000442495,0,0,0.0504884,-0.02118,0,-0.00230098,0,0,0,0.0278801,0.000301077,0.00845434,-0.919449,0.0122118,0.0245401,4.86201e-07,0.86,0.78,0
0.0439572,-0.0061598,0.0278706,0.000376689,0.00847419,-0.000387282,0,0,0.0504307,-0.0210535,0,-0.00201387,0,0,0,0.0278761,0.000371235,0.00847419,-0.806861,0.0122405,0.0244807,4.84633e-07,0.88,0.78,0
0.0449653,-0.00621056,0.0278719,0.000431521,0.00849102,-0.000327284,0,0,0.0503903,-0.0209547,0,-0.00170188,0,0,0,0.0278758,0.000427619,0.00849102,-0.683243,0.0122648,0.0244355,4.83522e-07,0.9,0.78,0
0.0459728,-0.00625286,0.0278753,0.0004739,0.00850477,-0.000264181,0,0,0.0503635,-0.0208803,0,-0.00137374,0,0,0,0.0278779,0.000471354,0.00850477,-0.552329,0.0122847,0.0244026,4.82778e-07,0.92,0.78,0
0.0469799,-0.00628621,0.0278796,0.000505141,0.00851543,-0.000199209,0,0,0.0503469,-0.0208267,0,-0.00103589,0,0,0,0.0278811,0.000503692,0.00851543,-0.416922,0.0123001,0.0243797,4.82311e-07,0.94,0.78,0
0.0479867,-0.00631026,0.0278836,0.000526462,0.00852301,-0.000133207,0,0,0.0503374,-0.020791,0,-0.000692677,0,0,0,0.0278842,0.000525813,0.00852301,-0.278975,0.012311,0.0243649,4.82042e-07,0.96,0.78,0
0.0489934,-0.00632478,0.0278863,0.000538836,0.00852754,-6.67016e-05,0,0,0.0503328,-0.0207706,0,-0.000346848,0,0,0,0.0278865,0.000538673,0.00852754,-0.139746,0.0123176,0.0243566,4.81907e-07,0.98,0.78,0
0.05,-0.00632964,0.0278873,0.000542889,0.00852905,-4.66758e-05,0,0,0.0503314,-0.020764,0,-0.000242714,0,0,0,0.0278874,0.000542809,0.00852905,-0.0978013,0.0123197,0.0243541,4.81872e-07,1,0.78,0
0,0,0.0272508,0.0116789,0.0116789,-0.00495705,0,0,0.0404869,-1.0842e-19,0,-0.0257766,0,0,0,0.0286949,0.0102349,0.0116789,-16.2418,0.0168696,0.017782,2.82368e-07,0,0.8,0
0.000809739,-0.000515533,0.027166,0.0106184,0.0113353,-0.00492568,0,0,0.0411598,-0.00186405,0,-0.0256135,0,0,0,0.0285212,0.00926314,0.0113353,-15.3834,0.0163732,0.0183101,3.01709e-07,0.02,0.8,0
0.00164639,-0.00102942,0.0275087,0.00967551,0.0111553,-0.00483633,0,0,0.0425189,-0.00384734,0,-0.0251489,0,0,0,0.0287358,0.00844835,0.0111553,-14.2376,0.0161131,0.0190786,3.3259e-07,0.04,0.8,0
0.00251049,-0.0015355,0.0278367,0.0087042,0.0109623,-0.00466404,0,0,0.0438734,-0.00587095,0,-0.024253,0,0,0,0.0289131,0.00762778,0.0109623,-12.9958,0.0158344,0.0198295,3.62581e-07,0.06,0.8,0
0.00340133,-0.00202706,0.0281331,0.00774355,0.010763,-0.00441041,0,0,0.0451623,-0.00785057,0,-0.0229341,0,0,0,0.0290462,0.00683043,0.010763,-11.697,0.0155465,0.0205339,3.90262e-07,0.08,0.8,0
0.00431699,-0.00249765,0.0283842,0.00682775,0.0105636,-0.00408667,0,0,0.0463335,-0.00971314,0,-0.0212507,0,0,0,0.0291329,0.00607901,0.0105636,-10.3824,0.0152585,0.0211709,4.14592e-07,0.1,0.8,0
0.00525467,-0.00294165,0.0285814,0.00598136,0.0103688,-0.00371021,0,0,0.0473526,-0.0114074,0,-0.0192931,0,0,0,0.0291749,0.00538784,0.0103688,-9.08847,0.0149772,0.021729,4.35023e-07,0.12,0.8,0
0.00621109,-0.00335468,0.0287221,0.00521797,0.010182,-0.00330053,0,0,0.0482043,-0.0129066,0,-0.0171627,0,0,0,0.0291768,0.0047633,0.010182,-7.8436,0.0147074,0.0222057,4.51469e-07,0.14,0.8,0
0.00718284,-0.00373371,0.0288092,0.00454167,0.0100053,-0.00287591,0,0,0.0488903,-0.0142054,0,-0.0149547,0,0,0,0.0291454,0.00420551,0.0100053,-6.66701,0.0144521,0.0226051,4.64199e-07,0.16,0.8,0
0.0081667,-0.00407697,0.028849,0.00394954,0.00983957,-0.0024515,0,0,0.0494246,-0.0153141,0,-0.0127478,0,0,0,0.0290881,0.00371047,0.00983957,-5.56985,0.0142127,0.0229357,4.737e-07,0.18,0.8,0
0.00915982,-0.00438381,0.0288499,0.00343433,0.00968527,-0.00203865,0,0,0.0498281,-0.0162524,0,-0.010601,0,0,0,0.0290124,0.00327185,0.00968527,-4.55701,0.0139898,0.0232083,4.80559e-07,0.2,0.8,0
0.0101598,-0.00465443,0.0288209,0.00298659,0.00954224,-0.00164514,0,0,0.0501244,-0.0170447,0,-0.00855471,0,0,0,0.0289252,0.00288225,0.00954224,-3.62908,0.0137832,0.0234338,4.85372e-07,0.22,0.8,0
0.0111648,-0.00488973,0.0287705,0.0025961,0.00940997,-0.00127588,0,0,0.0503373,-0.0177161,0,-0.00663459,0,0,0,0.0288325,0.00253405,0.00940997,-2.78411,0.0135922,0.0236233,4.88699e-07,0.24,0.8,0
0.0121733,-0.0050911,0.0287065,0.00225277,0.00928777,-0.000933723,0,0,0.0504886,-0.018291,0,-0.00485536,0,0,0,0.0287394,0.00221985,0.00928777,-2.01899,0.0134157,0.0237866,4.9103e-07,0.26,0.8,0
0.0131843,-0.00526029,0.0286355,0.0019472,0.0091748,-0.000620155,0,0,0.0505977,-0.0187918,0,-0.0032248,0,0,0,0.0286499,0.0019328,0.0091748,-1.33042,0.0132525,0.0239325,4.92782e-07,0.28,0.8,0
0.0141972,-0.00539938,0.028563,0.00167094,0.00907018,-0.000335938,0,0,0.0506813,-0.019238,0,-0.00174688,0,0,0,0.0285672,0.00166675,0.00907018,-0.715595,0.0131014,0.0240684,4.94297e-07,0.3,0.8,0
0.0152116,-0.00551065,0.0284935,0.00141667,0.00897304,-8.15346e-05,0,0,0.0507531,-0.0196466,0,-0.00042398,0,0,0,0.0284937,0.00141642,0.00897304,-0.172529,0.0129611,0.0242006,4.95841e-07,0.32,0.8,0
0.0162273,-0.00559656,0.0284303,0.00117827,0.00888257,0.000142599,0,0,0.0508241,-0.0200312,0,0.000741517,0,0,0,0.028431,0.00117753,0.00888257,0.299796,0.0128304,0.0243338,4.97612e-07,0.34,0.8,0
0.0172446,-0.00565979,0.0283759,0.000950978,0.00879807,0.000335858,0,0,0.0509024,-0.0204024,0,0.00174646,0,0,0,0.02838,0.000946865,0.00879807,0.70153,0.0127083,0.0244711,4.99738e-07,0.36,0.8,0
0.0182634,-0.00570313,0.0283319,0.000731414,0.008719,0.000497452,0,0,0.0509936,-0.0207677,0,0.00258675,0,0,0,0.0283409,0.000722451,0.008719,1.03221,0.0125941,0.0246144,5.02281e-07,0.38,0.8,0
0.0192843,-0.00572955,0.028299,0.000517685,0.00864499,0.000626477,0,0,0.0511003,-0.021131,0,0.00325768,0,0,0,0.0283131,0.000503565,0.00864499,1.29116,0.0124872,0.0247637,5.05241e-07,0.4,0.8,0
0.0203075,-0.00574211,0.0282768,0.000309402,0.00857587,0.000722075,0,0,0.0512225,-0.0214928,0,0.00375479,0,0,0,0.0282955,0.000290772,0.00857587,1.47797,0.0123874,0.0249176,5.08554e-07,0.42,0.8,0
0.0213332,-0.00574399,0.0282646,0.000107636,0.00851167,0.000783664,0,0,0.0513576,-0.0218505,0,0.00407505,0,0,0,0.0282864,8.58417e-05,0.00851167,1.59301,0.0122946,0.0250729,5.12106e-07,0.44,0.8,0
0.0223618,-0.00573836,0.0282605,-8.52222e-05,0.00845258,0.000811192,0,0,0.0515006,-0.0221983,0,0.0042182,0,0,0,0.0282837,-0.000108418,0.00845258,1.63789,0.0122093,0.0252257,5.1574e-07,0.46,0.8,0
0.0233932,-0.00572838,0.0282623,-0.000265722,0.00839898,0.000805391,0,0,0.0516447,-0.0225282,0,0.00418803,0,0,0,0.028285,-0.000288441,0.00839898,1.61583,0.0121319,0.0253709,5.1927e-07,0.48,0.8,0
0.0244275,-0.0057171,0.0282674,-0.000429726,0.0083513,0.000767974,0,0,0.0517819,-0.0228307,0,0.00399346,0,0,0,0.0282879,-0.000450263,0.0083513,1.53185,0.012063,0.0255032,5.22499e-07,0.5,0.8,0
0.0254645,-0.00570733,0.028273,-0.000572859,0.00831005,0.000701735,0,0,0.0519037,-0.0230956,0,0.00364902,0,0,0,0.0282901,-0.00058992,0.00831005,1.39274,0.0120034,0.025617,5.25235e-07,0.52,0.8,0
0.0265037,-0.00570163,0.0282765,-0.000690983,0.00827566,0.000610545,0,0,0.0520022,-0.0233133,0,0.00317483,0,0,0,0.0282894,-0.000703845,0.00827566,1.2069,0.0119537,0.0257078,5.2731e-07,0.54,0.8,0
0.0275446,-0.00570212,0.0282755,-0.000780638,0.00824846,0.000499227,0,0,0.0520703,-0.0234757,0,0.00259598,0,0,0,0.0282841,-0.000789213,0.00824846,0.984038,0.0119144,0.0257717,5.28589e-07,0.56,0.8,0
0.0285865,-0.0057105,0.0282682,-0.000839405,0.00822865,0.000373341,0,0,0.0521029,-0.0235769,0,0.00194137,0,0,0,0.028273,-0.000844192,0.00822865,0.734727,0.0118858,0.0258061,5.2898e-07,0.58,0.8,0
0.0296287,-0.00572796,0.0282535,-0.000866153,0.0082162,0.000238903,0,0,0.0520969,-0.0236141,0,0.00124229,0,0,0,0.0282554,-0.000868112,0.0082162,0.470023,0.0118678,0.0258097,5.28439e-07,0.6,0.8,0
0.0306704,-0.00575514,0.0282308,-0.000861186,0.00821089,0.000102067,0,0,0.0520518,-0.0235874,0,0.000530749,0,0,0,0.0282312,-0.000861544,0.00821089,0.201015,0.0118602,0.0257828,5.26973e-07,0.62,0.8,0
0.0317108,-0.00579216,0.0282005,-0.000826269,0.00821227,-3.12067e-05,0,0,0.0519694,-0.0235002,0,-0.000162275,0,0,0,0.0282005,-0.000826303,0.00821227,-0.0615987,0.0118622,0.0257273,5.24636e-07,0.64,0.8,0
0.0327492,-0.00583866,0.0281635,-0.000764547,0.00821968,-0.000155481,0,0,0.0518539,-0.023359,0,-0.000808503,0,0,0,0.0281643,-0.000765383,0.00821968,-0.307939,0.0118729,0.0256461,5.2153e-07,0.66,0.8,0
0.0337849,-0.00589377,0.0281213,-0.000680339,0.00823229,-0.000266143,0,0,0.0517115,-0.0231728,0,-0.00138394,0,0,0,0.0281238,-0.000682799,0.00823229,-0.529383,0.0118911,0.0255438,5.17795e-07,0.68,0.8,0
0.0348176,-0.00595631,0.0280759,-0.00057883,0.00824913,-0.000359641,0,0,0.0515497,-0.0229527,0,-0.00187013,0,0,0,0.0280804,-0.000583343,0.00824913,-0.718958,0.0119154,0.0254254,5.13604e-07,0.7,0.8,0
0.0358469,-0.00602476,0.0280295,-0.000465666,0.00826914,-0.00043364,0,0,0.0513769,-0.0227105,0,-0.00225493,0,0,0,0.0280361,-0.000472264,0.00826914,-0.87166,0.0119443,0.0252969,5.09146e-07,0.72,0.8,0
0.0368727,-0.00609742,0.0279841,-0.000346517,0.00829127,-0.000487056,0,0,0.0512013,-0.0224582,0,-0.00253269,0,0,0,0.0279924,-0.000354888,0.00829127,-0.984634,0.0119763,0.0251641,5.04616e-07,0.74,0.8,0
0.037895,-0.00617252,0.0279417,-0.000226658,0.0083145,-0.000519974,0,0,0.0510306,-0.022207,0,-0.00270387,0,0,0,0.0279512,-0.000236253,0.0083145,-1.05717,0.0120098,0.0250325,5.00193e-07,0.76,0.8,0
0.0389139,-0.00624826,0.0279037,-0.000110638,0.00833793,-0.000533465,0,0,0.0508711,-0.0219663,0,-0.00277402,0,0,0,0.0279139,-0.000120792,0.00833793,-1.09053,0.0120437,0.0249069,4.96034e-07,0.78,0.8,0
0.0399298,-0.00632292,0.0278713,-2.06176e-06,0.00836079,-0.000529337,0,0,0.0507275,-0.0217434,0,-0.00275255,0,0,0,0.0278814,-1.21106e-05,0.00836079,-1.08757,0.0120767,0.0247912,4.92259e-07,0.8,0.8,0
0.040943,-0.0063949,0.027845,9.64918e-05,0.00838244,-0.000509863,0,0,0.0506026,-0.0215435,0,-0.00265129,0,0,0,0.0278544,8.71265e-05,0.00838244,-1.0523,0.012108,0.0246879,4.88949e-07,0.82,0.8,0
0.0419539,-0.00646276,0.0278247,0.000183442,0.00840243,-0.000477526,0,0,0.0504978,-0.0213694,0,-0.00248314,0,0,0,0.0278329,0.000175195,0.00840243,-0.989441,0.0121368,0.0245986,4.86143e-07,0.84,0.8,0
0.0429629,-0.00652527,0.0278099,0.000258085,0.0084204,-0.000434799,0,0,0.0504128,-0.021222,0,-0.00226096,0,0,0,0.0278168,0.000251225,0.0084204,-0.903892,0.0121628,0.0245236,4.83843e-07,0.86,0.8,0
0.0439704,-0.00658136,0.0278,0.000320422,0.00843614,-0.000383982,0,0,0.0503462,-0.0211009,0,-0.0019967,0,0,0,0.0278054,0.000315057,0.00843614,-0.800404,0.0121855,0.0244626,4.82022e-07,0.88,0.8,0
0.0449768,-0.00663015,0.0277941,0.000370957,0.00844951,-0.000327097,0,0,0.0502959,-0.0210042,0,-0.0017009,0,0,0,0.027798,0.000367056,0.00844951,-0.683281,0.0122048,0.0244146,4.80632e-07,0.9,0.8,0
0.0459823,-0.00667094,0.027791,0.000410502,0.00846044,-0.000265838,0,0,0.0502594,-0.0209299,0,-0.00138236,0,0,0,0.0277936,0.000407921,0.00846044,-0.556217,0.0122206,0.0243781,4.79612e-07,0.92,0.8,0
0.0469872,-0.0067032,0.0277898,0.000439985,0.00846893,-0.000201565,0,0,0.0502342,-0.0208753,0,-0.00104814,0,0,0,0.0277913,0.000438499,0.00846893,-0.422233,0.0122329,0.0243517,4.78901e-07,0.94,0.8,0
0.0479916,-0.00672651,0.0277896,0.000460298,0.00847497,-0.000135329,0,0,0.050218,-0.0208381,0,-0.000703709,0,0,0,0.0277903,0.000459628,0.00847497,-0.283707,0.0122416,0.024334,4.78439e-07,0.96,0.8,0
0.0489959,-0.00674061,0.0277898,0.000472169,0.00847859,-6.79318e-05,0,0,0.0502091,-0.0208167,0,-0.000353246,0,0,0,0.02779,0.000472,0.00847859,-0.142479,0.0122468,0.0243239,4.78182e-07,0.98,0.8,0
0.05,-0.00674532,0.0277899,0.000476072,0.00847979,-4.53435e-05,0,0,0.0502063,-0.0208097,0,-0.000235786,0,0,0,0.02779,0.000475997,0.00847979,-0.0951161,0.0122486,0.0243207,4.78105e-07,1,0.8,0
0,0,0.0273605,0.0117259,0.0117259,-0.00532923,0,0,0.0406498,9.75782e-19,0,-0.027712,0,0,0,0.0290042,0.0100822,0.0117259,-17.1416,0.0169374,0.018156,2.98908e-07,0,0.82,0
0.000812997,-0.00055424,0.0272689,0.0105739,0.0113528,-0.00529245,0,0,0.0413816,-0.00202513,0,-0.0275207,0,0,0,0.0288052,0.00903757,0.0113528,-16.1877,0.0163985,0.0187177,3.19501e-07,0.02,0.82,0
0.00165527,-0.0011095,0.0276359,0.00953451,0.0111511,-0.00519642,0,0,0.0428603,-0.00420317,0,-0.0270214,0,0,0,0.0290215,0.00814883,0.0111511,-14.9311,0.0161072,0.0195453,3.53176e-07,0.04,0.82,0
0.00252741,-0.00165778,0.0279821,0.00846328,0.0109336,-0.00499435,0,0,0.044326,-0.00642283,0,-0.0259706,0,0,0,0.0291858,0.00725959,0.0109336,-13.5505,0.015793,0.0203396,3.85064e-07,0.06,0.82,0
0.00342831,-0.00219046,0.0282858,0.0074145,0.0107101,-0.00469109,0,0,0.0456968,-0.0085685,0,-0.0243936,0,0,0,0.0292917,0.0064086,0.0107101,-12.1026,0.0154701,0.0210643,4.13359e-07,0.08,0.82,0
0.00435528,-0.00269943,0.0285305,0.00643233,0.0104888,-0.00430534,0,0,0.0469082,-0.0105469,0,-0.0223878,0,0,0,0.0293396,0.00562315,0.0104888,-10.6443,0.0151505,0.0216968,4.36951e-07,0.1,0.82,0
0.00530463,-0.00317798,0.028708,0.00554468,0.0102758,-0.00386316,0,0,0.0479237,-0.0123009,0,-0.0200884,0,0,0,0.0293353,0.00491737,0.0102758,-9.22328,0.0148428,0.0222285,4.55498e-07,0.12,0.82,0
0.00627223,-0.00362121,0.0288187,0.00476334,0.0100746,-0.00339136,0,0,0.0487346,-0.0138093,0,-0.0176351,0,0,0,0.0292877,0.00429436,0.0100746,-7.87325,0.0145522,0.0226629,4.69272e-07,0.14,0.82,0
0.00725402,-0.00402607,0.0288694,0.00408775,0.00988714,-0.002913,0,0,0.0493538,-0.0150784,0,-0.0151476,0,0,0,0.0292072,0.00374995,0.00988714,-6.61481,0.0142814,0.0230109,4.78932e-07,0.16,0.82,0
0.00824638,-0.00439111,0.0288708,0.00350972,0.00971414,-0.00244542,0,0,0.0498072,-0.0161315,0,-0.0127162,0,0,0,0.0291044,0.00327607,0.00971414,-5.45771,0.0140315,0.0232866,4.85296e-07,0.18,0.82,0
0.00924631,-0.00471615,0.0288348,0.00301728,0.00955561,-0.0020003,0,0,0.0501258,-0.0169997,0,-0.0104016,0,0,0,0.0289888,0.00286321,0.00955561,-4.40416,0.0138026,0.0235052,4.8919e-07,0.2,0.82,0
0.0102514,-0.00500197,0.0287728,0.00259735,0.00941106,-0.00158457,0,0,0.0503406,-0.0177156,0,-0.00823979,0,0,0,0.0288684,0.00250177,0.00941106,-3.45169,0.0135937,0.0236805,4.91356e-07,0.22,0.82,0
0.0112599,-0.00525003,0.028695,0.0022372,0.00927966,-0.0012018,0,0,0.0504799,-0.0183104,0,-0.00624936,0,0,0,0.0287495,0.00218272,0.00927966,-2.59544,0.013404,0.0238247,4.92416e-07,0.24,0.82,0
0.0122706,-0.00546222,0.0286096,0.00192519,0.00916043,-0.000853319,0,0,0.0505677,-0.0188116,0,-0.00443726,0,0,0,0.0286368,0.00189793,0.00916043,-1.82973,0.0132317,0.0239483,4.9287e-07,0.26,0.82,0
0.0132826,-0.00564079,0.028523,0.00165109,0.00905223,-0.000539212,0,0,0.050624,-0.019243,0,-0.0028039,0,0,0,0.0285338,0.00164028,0.00905223,-1.14908,0.0130754,0.0240596,4.93105e-07,0.28,0.82,0
0.0142956,-0.00578819,0.0284404,0.00140613,0.00895395,-0.000258973,0,0,0.0506647,-0.0196243,0,-0.00134666,0,0,0,0.0284428,0.00140365,0.00895395,-0.548794,0.0129335,0.0241655,4.93411e-07,0.3,0.82,0
0.0153092,-0.00590704,0.0283653,0.00118298,0.00886448,-1.19554e-05,0,0,0.0507021,-0.0199719,0,-6.21678e-05,0,0,0,0.0283653,0.00118297,0.00886448,-0.0251999,0.0128043,0.024271,4.93995e-07,0.32,0.82,0
0.0163237,-0.00600009,0.0283003,0.000975741,0.00878282,0.000202368,0,0,0.0507455,-0.0202984,0,0.00105231,0,0,0,0.0283018,0.000974243,0.00878282,0.424306,0.0126863,0.0243799,4.94995e-07,0.34,0.82,0
0.0173391,-0.00607018,0.028247,0.000779897,0.00870808,0.000384289,0,0,0.0508013,-0.0206133,0,0.0019983,0,0,0,0.0282524,0.000774522,0.00870808,0.801408,0.0125783,0.0244945,4.96483e-07,0.36,0.82,0
0.0183557,-0.00612027,0.0282061,0.000592296,0.00863953,0.000533864,0,0,0.0508732,-0.0209228,0,0.00277609,0,0,0,0.0282165,0.000581979,0.00863953,1.10716,0.0124793,0.0246155,4.98475e-07,0.38,0.82,0
0.019374,-0.00615338,0.0281775,0.000411134,0.0085766,0.000650997,0,0,0.0509624,-0.0212302,0,0.00338518,0,0,0,0.0281928,0.000395879,0.0085766,1.34234,0.0123884,0.0247425,5.00934e-07,0.4,0.82,0
0.0203942,-0.0061726,0.0281604,0.000235911,0.0085189,0.0007356,0,0,0.0510679,-0.0215358,0,0.00382512,0,0,0,0.0281798,0.000216547,0.0085189,1.50792,0.0123051,0.0248739,5.03778e-07,0.42,0.82,0
0.0214167,-0.00618104,0.0281534,6.73496e-05,0.00846621,0.000787788,0,0,0.0511866,-0.021837,0,0.0040965,0,0,0,0.0281754,4.52702e-05,0.00846621,1.60541,0.012229,0.0250067,5.06885e-07,0.44,0.82,0
0.0224417,-0.00618178,0.0281544,-9.27642e-05,0.00841848,0.000808093,0,0,0.0513133,-0.0221292,0,0.00420209,0,0,0,0.0281775,-0.000115863,0.00841848,1.63733,0.01216,0.0251373,5.10103e-07,0.46,0.82,0
0.0234692,-0.00617783,0.0281611,-0.000241804,0.00837579,0.00079767,0,0,0.0514418,-0.0224057,0,0.00414788,0,0,0,0.0281835,-0.000264188,0.00837579,1.60741,0.0120984,0.0252613,5.13258e-07,0.48,0.82,0
0.0244993,-0.00617207,0.0281709,-0.000376606,0.00833829,0.000758441,0,0,0.0515648,-0.0226587,0,0.00394389,0,0,0,0.0281911,-0.000396741,0.00833829,1.52078,0.0120442,0.0253742,5.16173e-07,0.5,0.82,0
0.0255318,-0.00616714,0.0281811,-0.000493814,0.0083062,0.000693186,0,0,0.0516749,-0.02288,0,0.00360457,0,0,0,0.0281979,-0.000510561,0.0083062,1.38399,0.0119978,0.0254715,5.18678e-07,0.52,0.82,0
0.0265663,-0.0061654,0.0281893,-0.000590249,0.0082797,0.000605534,0,0,0.0517648,-0.0230619,0,0.00314878,0,0,0,0.028202,-0.000602984,0.0082797,1.20482,0.0119596,0.0255492,5.2062e-07,0.54,0.82,0
0.0276024,-0.00616885,0.028193,-0.000663248,0.00825894,0.000499869,0,0,0.0518287,-0.0231977,0,0.00259932,0,0,0,0.0282017,-0.000671904,0.00825894,0.992121,0.0119296,0.0256043,5.21876e-07,0.56,0.82,0
0.0286395,-0.00617908,0.0281908,-0.000710947,0.00824394,0.000381165,0,0,0.0518617,-0.0232827,0,0.00198206,0,0,0,0.0281958,-0.000715973,0.00824394,0.75546,0.0119079,0.0256344,5.22359e-07,0.58,0.82,0
0.0296769,-0.00619721,0.0281812,-0.000732494,0.00823462,0.000254758,0,0,0.0518612,-0.0233145,0,0.00132474,0,0,0,0.0281835,-0.000734738,0.00823462,0.50478,0.0118945,0.0256385,5.22025e-07,0.6,0.82,0
0.0307139,-0.00622391,0.028164,-0.000728162,0.00823075,0.000126083,0,0,0.0518264,-0.0232932,0,0.000655632,0,0,0,0.0281645,-0.000728712,0.00823075,0.250028,0.0118889,0.0256169,5.20872e-07,0.62,0.82,0
0.0317499,-0.00625935,0.0281391,-0.000699374,0.00823193,3.96748e-07,0,0,0.0517587,-0.0232214,0,2.06309e-06,0,0,0,0.0281391,-0.000699374,0.00823193,0.000788251,0.0118906,0.0255707,5.18941e-07,0.64,0.82,0
0.0327843,-0.00630327,0.0281074,-0.000648635,0.00823764,-0.000117493,0,0,0.0516615,-0.0231043,0,-0.000610966,0,0,0,0.0281079,-0.000649115,0.00823764,-0.234098,0.0118988,0.0255026,5.1631e-07,0.66,0.82,0
0.0338164,-0.00635499,0.0280701,-0.000579367,0.00824723,-0.000223473,0,0,0.0515395,-0.0229491,0,-0.00116206,0,0,0,0.0280719,-0.00058111,0.00824723,-0.446885,0.0119127,0.025416,5.13096e-07,0.68,0.82,0
0.0348459,-0.0064135,0.0280289,-0.000495664,0.00825996,-0.000314312,0,0,0.0513991,-0.0227646,0,-0.00163442,0,0,0,0.0280323,-0.000499127,0.00825996,-0.631241,0.0119311,0.0253151,5.0944e-07,0.7,0.82,0
0.0358724,-0.0064775,0.0279855,-0.000401991,0.00827505,-0.000387787,0,0,0.0512471,-0.0225603,0,-0.00201649,0,0,0,0.0279908,-0.000407287,0.00827505,-0.782493,0.0119528,0.0252046,5.05497e-07,0.72,0.82,0
0.0368957,-0.00654551,0.0279418,-0.000302856,0.0082917,-0.000442709,0,0,0.0510904,-0.0223458,0,-0.00230209,0,0,0,0.0279488,-0.000309794,0.0082917,-0.897762,0.0119769,0.0250892,5.01432e-07,0.74,0.82,0
0.037916,-0.00661595,0.0278997,-0.000202501,0.00830916,-0.000478874,0,0,0.0509354,-0.0221303,0,-0.00249015,0,0,0,0.0279079,-0.000210659,0.00830916,-0.975968,0.0120021,0.0249735,4.97397e-07,0.76,0.82,0
0.0389332,-0.0066872,0.0278605,-0.000104645,0.00832677,-0.000496931,0,0,0.0507878,-0.0219217,0,-0.00258404,0,0,0,0.0278694,-0.000113472,0.00832677,-1.0177,0.0120275,0.0248615,4.9353e-07,0.78,0.82,0
0.0399475,-0.00675768,0.0278254,-1.23093e-05,0.00834393,-0.000498195,0,0,0.0506518,-0.0217262,0,-0.00259062,0,0,0,0.0278343,-2.12224e-05,0.00834393,-1.02495,0.0120523,0.0247566,4.89941e-07,0.8,0.82,0
0.0409592,-0.00682588,0.027795,7.22582e-05,0.00836018,-0.000484446,0,0,0.0505305,-0.0215486,0,-0.00251912,0,0,0,0.0278035,6.37952e-05,0.00836018,-1.00082,0.0120758,0.0246613,4.86712e-07,0.82,0.82,0
0.0419687,-0.00689042,0.0277696,0.000147584,0.00837516,-0.00045772,0,0,0.0504256,-0.0213917,0,-0.00238015,0,0,0,0.0277772,0.000140001,0.00837516,-0.949092,0.0120975,0.0245771,4.83892e-07,0.84,0.82,0
0.0429763,-0.0069501,0.0277492,0.000212892,0.00838862,-0.000420131,0,0,0.0503375,-0.0212569,0,-0.00218468,0,0,0,0.0277556,0.000206484,0.00838862,-0.873911,0.0121169,0.0245049,4.81499e-07,0.86,0.82,0
0.0439822,-0.00700383,0.0277333,0.000267985,0.00840039,-0.000373729,0,0,0.0502656,-0.0211443,0,-0.00194339,0,0,0,0.0277384,0.000262901,0.00840039,-0.779448,0.0121339,0.0244446,4.79528e-07,0.88,0.82,0
0.0449869,-0.00705073,0.0277215,0.000313095,0.00841038,-0.000320399,0,0,0.0502089,-0.0210529,0,-0.00166607,0,0,0,0.0277253,0.000309351,0.00841038,-0.669654,0.0121483,0.0243959,4.77957e-07,0.9,0.82,0
0.0459906,-0.00709006,0.0277131,0.00034873,0.00841854,-0.000261804,0,0,0.0501658,-0.0209815,0,-0.00136138,0,0,0,0.0277156,0.000346225,0.00841854,-0.548101,0.0121601,0.0243579,4.76749e-07,0.92,0.82,0
0.0469935,-0.00712122,0.0277073,0.000375525,0.00842486,-0.000199365,0,0,0.0501345,-0.0209283,0,-0.0010367,0,0,0,0.0277088,0.000374071,0.00842486,-0.4179,0.0121692,0.0243297,4.75864e-07,0.94,0.82,0
0.0479959,-0.00714379,0.0277037,0.000394117,0.00842936,-0.000134275,0,0,0.0501134,-0.0208916,0,-0.000698228,0,0,0,0.0277044,0.000393457,0.00842936,-0.2817,0.0121757,0.0243104,4.75264e-07,0.96,0.82,0
0.0489981,-0.00715745,0.0277018,0.000405039,0.00843204,-6.75323e-05,0,0,0.0501013,-0.0208702,0,-0.000351168,0,0,0,0.0277019,0.000404871,0.00843204,-0.141749,0.0121796,0.0242991,4.74918e-07,0.98,0.82,0
0.05,-0.00716202,0.0277012,0.000408638,0.00843294,-4.39762e-05,0,0,0.0500974,-0.0208632,0,-0.000228676,0,0,0,0.0277012,0.000408567,0.00843294,-0.0923198,0.0121809,0.0242955,4.7481e-07,1,0.82,0
0,0,0.0275425,0.0118039,0.0118039,-0.00573594,0,0,0.0409204,6.50521e-19,0,-0.0298269,0,0,0,0.0294112,0.00993534,0.0118039,-18.0442,0.0170501,0.018612,3.19906e-07,0,0.84,0
0.000818407,-0.000596538,0.027442,0.0105352,0.0113932,-0.00569119,0,0,0.041727,-0.00223068,0,-0.0295942,0,0,0,0.0291793,0.00879793,0.0113932,-16.9751,0.0164568,0.0192156,3.42102e-07,0.02,0.84,0
0.00166908,-0.00119755,0.0278368,0.0093684,0.0111616,-0.00558381,0,0,0.0433557,-0.00466224,0,-0.0290358,0,0,0,0.0293938,0.00781143,0.0111616,-15.5804,0.0161223,0.0201176,3.79374e-07,0.04,0.84,0
0.00255263,-0.00179241,0.0282008,0.00816873,0.0109108,-0.00533842,0,0,0.0449538,-0.0071295,0,-0.0277598,0,0,0,0.0295346,0.00683489,0.0109108,-14.0285,0.0157601,0.0209611,4.13361e-07,0.06,0.84,0
0.00346723,-0.0023698,0.0285053,0.00701365,0.0106557,-0.00496677,0,0,0.0464089,-0.00946926,0,-0.0258272,0,0,0,0.0295976,0.00592133,0.0106557,-12.4033,0.0153915,0.0216999,4.41764e-07,0.08,0.84,0
0.00440899,-0.00291953,0.0287312,0.00595972,0.0104073,-0.00450035,0,0,0.0476421,-0.0115636,0,-0.0234018,0,0,0,0.0295883,0.00510257,0.0104073,-10.7835,0.0150327,0.0223115,4.63553e-07,0.1,0.84,0
0.00537291,-0.00343369,0.0288724,0.0050359,0.0101725,-0.00397808,0,0,0.0486198,-0.0133551,0,-0.020686,0,0,0,0.0295188,0.00438953,0.0101725,-9.22901,0.0146936,0.0227947,4.78865e-07,0.12,0.84,0
0.00635378,-0.00390705,0.0289348,0.00424789,0.00995481,-0.00343599,0,0,0.049348,-0.014838,0,-0.0178672,0,0,0,0.0294041,0.00377858,0.00995481,-7.77768,0.0143792,0.0231635,4.886e-07,0.14,0.84,0
0.00734684,-0.00433684,0.028932,0.00358659,0.00975559,-0.00290171,0,0,0.0498588,-0.0160394,0,-0.0150889,0,0,0,0.02926,0.00325863,0.00975559,-6.44843,0.0140914,0.0234383,4.93987e-07,0.16,0.84,0
0.00834813,-0.00472223,0.0288806,0.00303593,0.00957497,-0.00239346,0,0,0.0501947,-0.0170015,0,-0.012446,0,0,0,0.0291004,0.00281614,0.00957497,-5.24666,0.0138305,0.0236409,4.96261e-07,0.18,0.84,0
0.00935462,-0.0050638,0.0287968,0.00257795,0.00941242,-0.00192153,0,0,0.0503994,-0.0177696,0,-0.00999196,0,0,0,0.0289369,0.00243787,0.00941242,-4.16941,0.0135957,0.0237912,4.96497e-07,0.2,0.84,0
0.0103641,-0.00536306,0.0286943,0.0021955,0.00926696,-0.0014906,0,0,0.0505112,-0.0183858,0,-0.0077511,0,0,0,0.0287779,0.00211192,0.00926696,-3.20947,0.0133856,0.0239055,4.95547e-07,0.22,0.84,0
0.0113751,-0.00562215,0.0285843,0.00187339,0.0091373,-0.00110175,0,0,0.0505622,-0.0188862,0,-0.00572912,0,0,0,0.0286297,0.00182802,0.0091373,-2.35796,0.0131983,0.0239969,4.9405e-07,0.24,0.84,0
0.0123866,-0.00584356,0.0284748,0.00159866,0.00902204,-0.000754138,0,0,0.0505772,-0.0193008,0,-0.00392152,0,0,0,0.028496,0.00157752,0.00902204,-1.60602,0.0130318,0.0240755,4.92466e-07,0.26,0.84,0
0.0133982,-0.00603001,0.0283718,0.00136051,0.00891969,-0.000445973,0,0,0.0505754,-0.0196539,0,-0.00231906,0,0,0,0.0283791,0.00135315,0.00891969,-0.945645,0.012884,0.0241488,4.91115e-07,0.28,0.84,0
0.0144096,-0.00618436,0.0282792,0.00115011,0.00882879,-0.000175255,0,0,0.0505711,-0.0199646,0,-0.000911327,0,0,0,0.0282803,0.00114898,0.00882879,-0.370113,0.0127527,0.0242224,4.90208e-07,0.3,0.84,0
0.015421,-0.00630952,0.0281996,0.000960351,0.00874798,5.98665e-05,0,0,0.0505742,-0.0202478,0,0.000311306,0,0,0,0.0281997,0.00096022,0.00874798,0.125924,0.012636,0.0243003,4.89874e-07,0.32,0.84,0
0.0164326,-0.0064085,0.0281344,0.000785654,0.00867601,0.000260907,0,0,0.0505917,-0.0205149,0,0.00135671,0,0,0,0.0281369,0.000783166,0.00867601,0.546535,0.012532,0.0243849,4.90176e-07,0.34,0.84,0
0.0174447,-0.00648432,0.028084,0.00062185,0.00861176,0.000428995,0,0,0.0506279,-0.0207738,0,0.00223077,0,0,0,0.0280907,0.00061515,0.00861176,0.894744,0.0124392,0.0244774,4.91124e-07,0.36,0.84,0
0.0184577,-0.00654004,0.0280482,0.000466055,0.00855429,0.000564924,0,0,0.0506843,-0.0210294,0,0.0029376,0,0,0,0.0280598,0.00045449,0.00855429,1.17285,0.0123562,0.0245777,4.92686e-07,0.38,0.84,0
0.019472,-0.00657876,0.0280262,0.000316596,0.00850283,0.000669265,0,0,0.0507607,-0.0212842,0,0.00348018,0,0,0,0.0280423,0.000300441,0.00850283,1.38278,0.0122819,0.0246849,4.94787e-07,0.4,0.84,0
0.0204881,-0.00660354,0.0280164,0.000172916,0.00845678,0.000742529,0,0,0.0508549,-0.0215381,0,0.00386115,0,0,0,0.0280361,0.000153128,0.00845678,1.52652,0.0122154,0.0247968,4.97322e-07,0.42,0.84,0
0.0215062,-0.00661747,0.0280169,3.54686e-05,0.0084157,0.000785349,0,0,0.050963,-0.0217886,0,0.00408382,0,0,0,0.0280389,1.34436e-05,0.0084157,1.60643,0.012156,0.0249108,5.00157e-07,0.44,0.84,0
0.0225266,-0.00662353,0.0280254,-9.44323e-05,0.00837928,0.000798673,0,0,0.0510799,-0.0220317,0,0.0041531,0,0,0,0.028048,-0.000117098,0.00837928,1.6256,0.0121034,0.0250232,5.03139e-07,0.46,0.84,0
0.0235494,-0.00662461,0.0280394,-0.00021481,0.00834738,0.000783924,0,0,0.0511992,-0.0222617,0,0.00407641,0,0,0,0.0280611,-0.000236544,0.00834738,1.58807,0.0120573,0.0251304,5.06103e-07,0.48,0.84,0
0.0245746,-0.00662345,0.0280562,-0.000323266,0.00831989,0.000743132,0,0,0.0513145,-0.0224722,0,0.00386429,0,0,0,0.0280757,-0.000342712,0.00831989,1.49895,0.0120176,0.0252283,5.08882e-07,0.5,0.84,0
0.025602,-0.00662254,0.0280732,-0.00041725,0.0082968,0.000678999,0,0,0.0514187,-0.0226565,0,0.00353079,0,0,0,0.0280894,-0.000433423,0.0082968,1.36447,0.0119843,0.0253132,5.1132e-07,0.52,0.84,0
0.0266314,-0.0066241,0.028088,-0.000494342,0.00827809,0.000594896,0,0,0.0515057,-0.0228083,0,0.00309346,0,0,0,0.0281004,-0.000506719,0.00827809,1.19183,0.0119572,0.0253817,5.13276e-07,0.54,0.84,0
0.0276622,-0.00663003,0.0280983,-0.000552514,0.00826374,0.000494796,0,0,0.0515699,-0.0229223,0,0.00257294,0,0,0,0.0281069,-0.000561056,0.00826374,0.989098,0.0119365,0.025431,5.14634e-07,0.56,0.84,0
0.0286942,-0.00664181,0.0281026,-0.000590349,0.00825367,0.000383137,0,0,0.0516072,-0.0229944,0,0.00199231,0,0,0,0.0281077,-0.000595464,0.00825367,0.764889,0.011922,0.0254594,5.15314e-07,0.58,0.84,0
0.0297265,-0.00666054,0.0280996,-0.000607211,0.00824772,0.000264637,0,0,0.0516149,-0.0230228,0,0.00137611,0,0,0,0.0281021,-0.00060965,0.00824772,0.528128,0.0119134,0.0254658,5.15266e-07,0.6,0.84,0
0.0307588,-0.00668686,0.0280889,-0.000603333,0.00824566,0.000144087,0,0,0.0515923,-0.0230074,0,0.00074925,0,0,0,0.0280896,-0.000604056,0.00824566,0.287718,0.0119104,0.0254502,5.14483e-07,0.62,0.84,0
0.0317902,-0.00672102,0.0280703,-0.000579839,0.00824715,2.61132e-05,0,0,0.0515403,-0.0229502,0,0.000135789,0,0,0,0.0280704,-0.000579863,0.00824715,0.0522222,0.0119126,0.0254137,5.12992e-07,0.64,0.84,0
0.0328204,-0.00676283,0.0280446,-0.000538691,0.00825178,-8.50371e-05,0,0,0.0514614,-0.0228552,0,-0.000442193,0,0,0,0.0280449,-0.000538944,0.00825178,-0.170456,0.0119192,0.0253582,5.10854e-07,0.66,0.84,0
0.0338487,-0.00681174,0.0280128,-0.000482558,0.00825906,-0.0001857,0,0,0.0513596,-0.0227282,0,-0.000965638,0,0,0,0.028014,-0.000483768,0.00825906,-0.373367,0.0119298,0.0252865,5.08162e-07,0.68,0.84,0
0.0348747,-0.00686689,0.0279761,-0.000414632,0.00826844,-0.000272946,0,0,0.0512399,-0.022576,0,-0.00141932,0,0,0,0.0279787,-0.000417256,0.00826844,-0.55077,0.0119433,0.0252019,5.05032e-07,0.7,0.84,0
0.0358983,-0.00692717,0.0279363,-0.000338402,0.00827936,-0.000344685,0,0,0.051108,-0.0224062,0,-0.00179236,0,0,0,0.0279405,-0.000342604,0.00827936,-0.698332,0.0119591,0.0251081,5.01595e-07,0.72,0.84,0
0.0369191,-0.00699126,0.027895,-0.000257409,0.00829127,-0.000399691,0,0,0.0509696,-0.0222266,0,-0.00207839,0,0,0,0.0279006,-0.000263082,0.00829127,-0.813233,0.0119763,0.025009,4.97988e-07,0.74,0.84,0
0.0379371,-0.00705774,0.0278538,-0.000175013,0.00830362,-0.000437569,0,0,0.0508303,-0.0220445,0,-0.00227536,0,0,0,0.0278606,-0.000181842,0.00830362,-0.894179,0.0119941,0.0249084,4.94343e-07,0.76,0.84,0
0.0389523,-0.00712513,0.0278141,-9.4201e-05,0.00831596,-0.000458665,0,0,0.0506951,-0.0218664,0,-0.00238506,0,0,0,0.0278216,-0.000101737,0.00831596,-0.941302,0.0120119,0.0248097,4.90782e-07,0.78,0.84,0
0.0399649,-0.00719197,0.0277771,-1.74512e-05,0.00832789,-0.000463925,0,0,0.0505679,-0.0216979,0,-0.00241241,0,0,0,0.0277848,-2.51925e-05,0.00832789,-0.955982,0.0120292,0.0247158,4.87409e-07,0.8,0.84,0
0.040975,-0.00725684,0.0277436,5.33417e-05,0.0083391,-0.00045474,0,0,0.0504518,-0.021543,0,-0.00236465,0,0,0,0.0277511,4.58758e-05,0.0083391,-0.940593,0.0120454,0.0246291,4.84303e-07,0.82,0.84,0
0.0419829,-0.00731843,0.0277143,0.000116874,0.00834934,-0.000432781,0,0,0.0503488,-0.0214044,0,-0.00225046,0,0,0,0.0277211,0.000110088,0.00834934,-0.898216,0.0120602,0.0245511,4.81522e-07,0.84,0.84,0
0.042989,-0.00737554,0.0276892,0.000172386,0.00835847,-0.000399855,0,0,0.0502598,-0.0212838,0,-0.00207925,0,0,0,0.027695,0.000166577,0.00835847,-0.832349,0.0120733,0.0244829,4.79098e-07,0.86,0.84,0
0.0439933,-0.00742713,0.0276684,0.000219585,0.00836639,-0.00035778,0,0,0.0501852,-0.0211817,0,-0.00186046,0,0,0,0.027673,0.000214922,0.00836639,-0.74665,0.0120848,0.0244248,4.77043e-07,0.88,0.84,0
0.0449964,-0.00747226,0.0276516,0.000258529,0.00837305,-0.000308292,0,0,0.0501243,-0.0210977,0,-0.00160312,0,0,0,0.0276551,0.000255059,0.00837305,-0.64472,0.0120944,0.0243768,4.75354e-07,0.9,0.84,0
0.0459983,-0.0075102,0.0276386,0.000289515,0.00837845,-0.000252992,0,0,0.0500765,-0.0210312,0,-0.00131556,0,0,0,0.027641,0.000287175,0.00837845,-0.529951,0.0121022,0.0243387,4.74015e-07,0.92,0.84,0
0.0469994,-0.00754033,0.0276291,0.000312966,0.00838261,-0.000193312,0,0,0.0500408,-0.0209811,0,-0.00100522,0,0,0,0.0276304,0.000311598,0.00838261,-0.405446,0.0121082,0.0243099,4.73007e-07,0.94,0.84,0
0.0479999,-0.00756218,0.0276225,0.000329324,0.00838555,-0.00013052,0,0,0.0500161,-0.0209462,0,-0.000678706,0,0,0,0.0276231,0.0003287,0.00838555,-0.273989,0.0121125,0.0242897,4.72305e-07,0.96,0.84,0
0.0490001,-0.00757541,0.0276187,0.000338969,0.0083873,-6.5743e-05,0,0,0.0500016,-0.0209257,0,-0.000341863,0,0,0,0.0276189,0.00033881,0.0083873,-0.138079,0.012115,0.0242779,4.71893e-07,0.98,0.84,0
0.05,-0.00757985,0.0276175,0.000342154,0.00838788,-4.26379e-05,0,0,0.0499969,-0.0209189,0,-0.000221717,0,0,0,0.0276175,0.000342088,0.00838788,-0.089567,0.0121158,0.0242741,4.71762e-07,1,0.84,0
0,0,0.0278242,0.0119246,0.0119246,-0.00618718,0,0,0.0413388,-3.25261e-19,0,-0.0321734,0,0,0,0.0299481,0.00980069,0.0119246,-18.9465,0.0172245,0.0191739,3.47105e-07,0,0.86,0
0.000826776,-0.000643467,0.027711,0.0105018,0.0114638,-0.0061297,0,0,0.0422426,-0.00250136,0,-0.0318744,0,0,0,0.0296711,0.0085417,0.0114638,-17.7325,0.0165589,0.0198304,3.71367e-07,0.02,0.86,0
0.00168971,-0.00129599,0.0281365,0.00916159,0.0111894,-0.00600175,0,0,0.0440625,-0.00527241,0,-0.0312091,0,0,0,0.0298755,0.00742262,0.0111894,-16.1587,0.0161625,0.0208266,4.13261e-07,0.04,0.86,0
0.00258927,-0.00194296,0.0285142,0.00779488,0.0108927,-0.00569008,0,0,0.0458158,-0.00805436,0,-0.0295884,0,0,0,0.029974,0.00633508,0.0108927,-14.389,0.0157339,0.0217217,4.49261e-07,0.06,0.86,0
0.00352234,-0.00256923,0.028806,0.00651474,0.0105962,-0.00522133,0,0,0.0473455,-0.0106119,0,-0.0271509,0,0,0,0.0299684,0.00535235,0.0105962,-12.5507,0.0153057,0.0224581,4.76554e-07,0.08,0.86,0
0.00448309,-0.00316197,0.0289913,0.00539044,0.0103145,-0.00464895,0,0,0.0485596,-0.0128026,0,-0.0241745,0,0,0,0.029874,0.0045077,0.0103145,-10.7513,0.0148987,0.0230189,4.94607e-07,0.1,0.86,0
0.00546472,-0.00371218,0.0290699,0.00444504,0.0100545,-0.00403052,0,0,0.0494401,-0.0145846,0,-0.0209587,0,0,0,0.0297128,0.00380212,0.0100545,-9.06302,0.0145231,0.0234191,5.0457e-07,0.12,0.86,0
0.0064607,-0.00421473,0.0290581,0.00367008,0.00981845,-0.00341225,0,0,0.0500231,-0.0159858,0,-0.0177437,0,0,0,0.0295087,0.00321946,0.00981845,-7.52296,0.0141822,0.0236894,5.08373e-07,0.14,0.86,0
0.00746564,-0.00466765,0.0289797,0.00304255,0.00960668,-0.00282432,0,0,0.0503699,-0.0170668,0,-0.0146865,0,0,0,0.0292837,0.00273857,0.00960668,-6.14307,0.0138763,0.0238642,5.08016e-07,0.16,0.86,0
0.0084755,-0.00507117,0.028859,0.00253589,0.00941846,-0.00228281,0,0,0.0505453,-0.0178947,0,-0.0118706,0,0,0,0.0290555,0.00233939,0.00941846,-4.91989,0.0136044,0.0239737,5.05182e-07,0.18,0.86,0
0.00948745,-0.00542694,0.0287162,0.00212549,0.00925252,-0.00179402,0,0,0.0506057,-0.0185303,0,-0.00932892,0,0,0,0.0288367,0.00200499,0.00925252,-3.84242,0.0133647,0.0240417,5.01132e-07,0.2,0.86,0
0.0104997,-0.0057374,0.0285669,0.00179035,0.00910718,-0.00135849,0,0,0.0505953,-0.0190238,0,-0.00706414,0,0,0,0.0286357,0.00172161,0.00910718,-2.89694,0.0131548,0.024086,4.96734e-07,0.22,0.86,0
0.0115113,-0.00600547,0.0284218,0.00151337,0.00898056,-0.000973726,0,0,0.0505473,-0.0194147,0,-0.00506337,0,0,0,0.028457,0.00147818,0.00898056,-2.06973,0.0129719,0.0241192,4.92556e-07,0.24,0.86,0
0.0125216,-0.00623425,0.028288,0.00128085,0.00887067,-0.000636049,0,0,0.0504852,-0.0197335,0,-0.00330745,0,0,0,0.028303,0.00126588,0.00887067,-1.34838,0.0128132,0.0241501,4.88946e-07,0.26,0.86,0
0.0135307,-0.00642695,0.0281699,0.00108196,0.00877557,-0.000341565,0,0,0.0504254,-0.0200034,0,-0.00177614,0,0,0,0.0281742,0.00107765,0.00877557,-0.722315,0.0126758,0.0241846,4.86104e-07,0.28,0.86,0
0.0145386,-0.00658678,0.0280699,0.000908171,0.00869341,-8.6706e-05,0,0,0.0503788,-0.0202416,0,-0.000450871,0,0,0,0.0280701,0.000907894,0.00869341,-0.182898,0.0125571,0.0242266,4.84129e-07,0.3,0.86,0
0.0155458,-0.00671696,0.0279888,0.000752868,0.0086225,0.000131536,0,0,0.0503524,-0.020461,0,0.000683989,0,0,0,0.0279894,0.000752233,0.0086225,0.276702,0.0124547,0.0242784,4.83049e-07,0.32,0.86,0
0.0165527,-0.00682068,0.0279267,0.000610995,0.00856131,0.000315555,0,0,0.05035,-0.0206708,0,0.00164088,0,0,0,0.0279303,0.000607351,0.00856131,0.661771,0.0123663,0.024341,4.82845e-07,0.34,0.86,0
0.0175598,-0.00690113,0.0278828,0.000478842,0.00850849,0.000467173,0,0,0.0503732,-0.0208771,0,0.0024293,0,0,0,0.0278908,0.00047088,0.00850849,0.97638,0.01229,0.0244144,4.8346e-07,0.36,0.86,0
0.0185677,-0.00696145,0.0278558,0.000353869,0.00846289,0.000587758,0,0,0.0504215,-0.0210835,0,0.00305634,0,0,0,0.0278683,0.000341314,0.00846289,1.22375,0.0122242,0.0244976,4.84807e-07,0.38,0.86,0
0.0195767,-0.00700475,0.0278438,0.00023459,0.00842352,0.000678371,0,0,0.0504928,-0.0212912,0,0.00352753,0,0,0,0.0278605,0.000217933,0.00842352,1.40665,0.0121673,0.024589,4.86773e-07,0.4,0.86,0
0.0205874,-0.00703412,0.0278448,0.000120455,0.00838958,0.000739944,0,0,0.0505836,-0.0214997,0,0.00384771,0,0,0,0.0278645,0.00010072,0.00838958,1.52773,0.0121183,0.0246861,4.89228e-07,0.42,0.86,0
0.0216,-0.00705258,0.0278563,1.17309e-05,0.00836041,0.000773453,0,0,0.0506893,-0.0217066,0,0.00402195,0,0,0,0.0278778,-9.73718e-06,0.00836041,1.5899,0.0120761,0.0247861,4.92022e-07,0.44,0.86,0
0.0226149,-0.00706305,0.0278757,-9.06289e-05,0.00833551,0.000780094,0,0,0.0508044,-0.021908,0,0.00405649,0,0,0,0.0278974,-0.000112372,0.00833551,1.59656,0.0120402,0.0248856,4.94999e-07,0.46,0.86,0
0.0236322,-0.0070683,0.0279001,-0.000185155,0.00831449,0.000761427,0,0,0.0509227,-0.0220991,0,0.00395942,0,0,0,0.0279208,-0.000205783,0.00831449,1.55184,0.0120098,0.024981,4.97993e-07,0.48,0.86,0
0.0246518,-0.00707096,0.0279269,-0.000270051,0.00829707,0.000719484,0,0,0.0510377,-0.0222745,0,0.00374132,0,0,0,0.0279453,-0.000288398,0.00829707,1.46071,0.0119847,0.0250689,5.00846e-07,0.5,0.86,0
0.0256737,-0.0070734,0.0279535,-0.000343403,0.00828301,0.000656828,0,0,0.0511431,-0.0224287,0,0.00341551,0,0,0,0.0279687,-0.000358641,0.00828301,1.329,0.0119644,0.025146,5.03407e-07,0.52,0.86,0
0.0266976,-0.00707773,0.0279772,-0.000403393,0.00827215,0.00057655,0,0,0.0512332,-0.0225564,0,0.00299806,0,0,0,0.0279889,-0.000415101,0.00827215,1.16332,0.0119487,0.0252092,5.05543e-07,0.54,0.86,0
0.027723,-0.00708574,0.0279962,-0.000448496,0.00826432,0.000482218,0,0,0.051303,-0.0226533,0,0.00250753,0,0,0,0.0280044,-0.000456669,0.00826432,0.970952,0.0119374,0.0252563,5.07145e-07,0.56,0.86,0
0.0287497,-0.00709886,0.0280088,-0.000477652,0.00825934,0.000377767,0,0,0.0513485,-0.0227162,0,0.00196439,0,0,0,0.0280138,-0.00048266,0.00825934,0.759639,0.0119302,0.0252854,5.08132e-07,0.58,0.86,0
0.029777,-0.00711813,0.0280137,-0.000490388,0.008257,0.000267353,0,0,0.0513675,-0.0227432,0,0.00139024,0,0,0,0.0280162,-0.000492895,0.008257,0.537341,0.0119268,0.0252958,5.08453e-07,0.6,0.86,0
0.0308044,-0.00714421,0.0280105,-0.000486894,0.00825708,0.000155177,0,0,0.0513589,-0.0227343,0,0.000806923,0,0,0,0.0280113,-0.000487739,0.00825708,0.311982,0.0119269,0.0252873,5.08093e-07,0.62,0.86,0
0.0318313,-0.00717736,0.027999,-0.000468037,0.00825929,4.52993e-05,0,0,0.0513233,-0.0226911,0,0.000235556,0,0,0,0.0279991,-0.000468109,0.00825929,0.0911739,0.0119301,0.0252607,5.07069e-07,0.64,0.86,0
0.0328573,-0.00721748,0.0279797,-0.000435318,0.00826332,-5.85456e-05,0,0,0.0512626,-0.0226164,0,-0.000304437,0,0,0,0.0279798,-0.000435439,0.00826332,-0.11805,0.0119359,0.0252174,5.05427e-07,0.66,0.86,0
0.0338818,-0.00726412,0.0279535,-0.000390781,0.0082688,-0.000153108,0,0,0.0511801,-0.0225149,0,-0.000796163,0,0,0,0.0279543,-0.000391608,0.0082688,-0.309485,0.0119438,0.0251596,5.03243e-07,0.68,0.86,0
0.0349045,-0.00731654,0.0279215,-0.000336867,0.00827538,-0.000235754,0,0,0.0510798,-0.0223918,0,-0.00122592,0,0,0,0.0279234,-0.000338834,0.00827538,-0.477963,0.0119533,0.0250899,5.00612e-07,0.7,0.86,0
0.035925,-0.00737375,0.0278852,-0.000276253,0.00828268,-0.000304545,0,0,0.0509665,-0.0222532,0,-0.00158363,0,0,0,0.0278885,-0.000279547,0.00828268,-0.619515,0.0119639,0.0250114,4.97645e-07,0.72,0.86,0
0.0369432,-0.00743457,0.0278461,-0.000211668,0.00829034,-0.000358272,0,0,0.0508451,-0.0221052,0,-0.00186302,0,0,0,0.0278507,-0.000216242,0.00829034,-0.731455,0.0119749,0.0249271,4.94459e-07,0.74,0.86,0
0.0379588,-0.00749773,0.0278059,-0.00014572,0.00829805,-0.000396433,0,0,0.0507204,-0.0219538,0,-0.00206145,0,0,0,0.0278115,-0.000151341,0.00829805,-0.812398,0.0119861,0.0248404,4.91173e-07,0.76,0.86,0
0.038972,-0.00756186,0.0277658,-8.0754e-05,0.00830552,-0.000419162,0,0,0.0505968,-0.0218043,0,-0.00217964,0,0,0,0.0277721,-8.7062e-05,0.00830552,-0.862189,0.0119969,0.024754,4.87897e-07,0.78,0.86,0
0.0399827,-0.00762559,0.0277272,-1.87448e-05,0.00831253,-0.000427136,0,0,0.0504781,-0.0216613,0,-0.00222111,0,0,0,0.0277337,-2.53188e-05,0.00831253,-0.881765,0.012007,0.0246705,4.84728e-07,0.8,0.86,0
0.0409911,-0.00768759,0.027691,3.8764e-05,0.00831892,-0.000421444,0,0,0.0503673,-0.0215284,0,-0.00219151,0,0,0,0.0276974,3.23423e-05,0.00831892,-0.872968,0.0120162,0.0245921,4.81748e-07,0.82,0.86,0
0.0419974,-0.0077466,0.027658,9.06731e-05,0.00832459,-0.000403463,0,0,0.0502668,-0.0214082,0,-0.00209801,0,0,0,0.0276639,8.47695e-05,0.00832459,-0.838317,0.0120244,0.0245205,4.79019e-07,0.84,0.86,0
0.0430018,-0.00780145,0.0276286,0.000136301,0.00832949,-0.000374735,0,0,0.0501778,-0.0213023,0,-0.00194862,0,0,0,0.0276338,0.000131194,0.00832949,-0.780778,0.0120315,0.0244567,4.76585e-07,0.86,0.86,0
0.0440045,-0.0078511,0.0276033,0.000175328,0.0083336,-0.000336866,0,0,0.0501013,-0.0212115,0,-0.0017517,0,0,0,0.0276075,0.000171192,0.0083336,-0.703556,0.0120374,0.0244014,4.74474e-07,0.88,0.86,0
0.0450058,-0.00789464,0.0275821,0.000207718,0.00833695,-0.00029144,0,0,0.0500374,-0.021136,0,-0.00151549,0,0,0,0.0275852,0.000204615,0.00833695,-0.609905,0.0120423,0.024355,4.72698e-07,0.9,0.86,0
0.046006,-0.00793131,0.027565,0.000233629,0.00833959,-0.000239966,0,0,0.0499861,-0.0210755,0,-0.00124783,0,0,0,0.0275671,0.000231523,0.00833959,-0.502999,0.0120461,0.0243174,4.71259e-07,0.92,0.86,0
0.0470053,-0.00796047,0.0275519,0.000253334,0.00834157,-0.000183847,0,0,0.0499468,-0.0210294,0,-0.000956004,0,0,0,0.0275531,0.000252096,0.00834157,-0.385845,0.0120489,0.0242886,4.70153e-07,0.94,0.86,0
0.0480039,-0.00798164,0.0275426,0.000267133,0.00834293,-0.000124369,0,0,0.0499192,-0.0209971,0,-0.000646719,0,0,0,0.0275432,0.000266566,0.00834293,-0.261246,0.0120509,0.0242682,4.69372e-07,0.96,0.86,0
0.0490021,-0.00799448,0.0275371,0.000275292,0.00834373,-6.27177e-05,0,0,0.0499029,-0.0209779,0,-0.000326132,0,0,0,0.0275373,0.000275148,0.00834373,-0.131812,0.0120521,0.0242561,4.68907e-07,0.98,0.86,0
0.05,-0.00799878,0.0275353,0.00027799,0.008344,-4.13724e-05,0,0,0.0498975,-0.0209716,0,-0.000215136,0,0,0,0.0275354,0.000277928,0.008344,-0.0869658,0.0120524,0.0242522,4.68757e-07,1,0.86,0
0,0,0.0282496,0.012107,0.012107,-0.006698,0,0,0.0419709,-4.33681e-19,0,-0.0348296,0,0,0,0.0306668,0.00968976,0.012107,-19.8438,0.0174879,0.019879,3.83428e-07,0,0.88,0
0.000839417,-0.000696593,0.0281165,0.0104701,0.011576,-0.00661849,0,0,0.0430053,-0.00287519,0,-0.0344161,0,0,0,0.0303229,0.00826368,0.011576,-18.4373,0.0167209,0.0206038,4.1036e-07,0.02,0.88,0
0.00172021,-0.00140844,0.028573,0.00888424,0.0112372,-0.00645099,0,0,0.0450731,-0.0061176,0,-0.0335451,0,0,0,0.0304983,0.00695886,0.0112372,-16.6184,0.0162315,0.0217187,4.58104e-07,0.04,0.88,0
0.00264234,-0.00211458,0.0289524,0.00729928,0.0108755,-0.00603322,0,0,0.0469999,-0.00929815,0,-0.0313728,0,0,0,0.0305199,0.00573172,0.0108755,-14.5646,0.015709,0.0226585,4.95246e-07,0.06,0.88,0
0.0036002,-0.00279428,0.0292048,0.00588107,0.0105258,-0.00542351,0,0,0.0485655,-0.0120762,0,-0.0282023,0,0,0,0.0304043,0.00468162,0.0105258,-12.4707,0.0152039,0.0233555,5.18793e-07,0.08,0.88,0
0.00458496,-0.00343163,0.0293115,0.00470377,0.0102046,-0.0047135,0,0,0.049678,-0.0143021,0,-0.0245102,0,0,0,0.0301835,0.00383182,0.0102046,-10.4807,0.01474,0.0238136,5.29747e-07,0.1,0.88,0
0.00558732,-0.00401707,0.0292867,0.00376704,0.00991611,-0.00398499,0,0,0.0503634,-0.0159876,0,-0.0207219,0,0,0,0.0298945,0.00315925,0.00991611,-8.67199,0.0143233,0.0240786,5.31204e-07,0.12,0.88,0
0.0065995,-0.00454648,0.0291649,0.00303579,0.00966022,-0.00329195,0,0,0.0507123,-0.0172235,0,-0.0171181,0,0,0,0.0295733,0.00262743,0.00966022,-7.07136,0.0139537,0.0242082,5.26648e-07,0.14,0.88,0
0.00761582,-0.00501951,0.0289845,0.00246714,0.0094355,-0.00266121,0,0,0.0508275,-0.0181177,0,-0.0138383,0,0,0,0.029249,0.0022027,0.0094355,-5.67464,0.013629,0.0242527,5.18952e-07,0.16,0.88,0
0.0086326,-0.00543802,0.0287776,0.00202319,0.00924024,-0.00210151,0,0,0.0507972,-0.0187643,0,-0.0109278,0,0,0,0.0289417,0.00185913,0.00924024,-4.46398,0.013347,0.0242497,5.10125e-07,0.18,0.88,0
0.0096477,-0.00580501,0.0285672,0.00167341,0.00907217,-0.00161175,0,0,0.050687,-0.0192368,0,-0.00838109,0,0,0,0.0286634,0.00157716,0.00907217,-3.41744,0.0131042,0.0242245,5.01412e-07,0.2,0.88,0
0.0106601,-0.00612401,0.0283679,0.00139425,0.00892865,-0.00118644,0,0,0.0505421,-0.0195895,0,-0.00616947,0,0,0,0.02842,0.00134216,0.00892865,-2.51368,0.0128969,0.0241938,4.93517e-07,0.22,0.88,0
0.0116694,-0.00639874,0.0281886,0.00116785,0.00880693,-0.000818695,0,0,0.0503923,-0.0198616,0,-0.00425721,0,0,0,0.0282134,0.00114307,0.00880693,-1.73387,0.0127211,0.0241676,4.86802e-07,0.24,0.88,0
0.0126758,-0.0066329,0.0280337,0.000980723,0.00870432,-0.000501776,0,0,0.0502564,-0.0200814,0,-0.00260923,0,0,0,0.028043,0.000971419,0.00870432,-1.06223,0.0125729,0.0241521,4.81414e-07,0.26,0.88,0
0.0136796,-0.00683015,0.027905,0.000822667,0.0086183,-0.00022972,0,0,0.0501454,-0.0202687,0,-0.00119454,0,0,0,0.027907,0.000820719,0.0086183,-0.485952,0.0124487,0.0241508,4.77379e-07,0.28,0.88,0
0.0146816,-0.00699402,0.0278026,0.000685963,0.00854658,2.42105e-06,0,0,0.0500657,-0.0204376,0,1.25895e-05,0,0,0,0.0278026,0.000685962,0.00854658,0.00511552,0.0123451,0.024165,4.74653e-07,0.3,0.88,0
0.0156823,-0.00712796,0.0277256,0.000564783,0.0084871,0.000198585,0,0,0.05002,-0.020598,0,0.00103264,0,0,0,0.027727,0.000563331,0.0084871,0.418886,0.0122591,0.0241953,4.73148e-07,0.32,0.88,0
0.0166824,-0.00723533,0.027672,0.00045479,0.00843805,0.000361808,0,0,0.0500084,-0.0207565,0,0.0018814,0,0,0,0.0276769,0.000449981,0.00843805,0.761472,0.0121883,0.0242409,4.72755e-07,0.34,0.88,0
0.0176826,-0.0073194,0.02764,0.000352855,0.00839784,0.000494382,0,0,0.0500295,-0.020917,0,0.00257079,0,0,0,0.0276489,0.000343901,0.00839784,1.03762,0.0121302,0.0243006,4.73346e-07,0.36,0.88,0
0.0186836,-0.00738338,0.0276268,0.000256862,0.00836511,0.000598036,0,0,0.0500805,-0.0210814,0,0.00310979,0,0,0,0.0276399,0.000243801,0.00836511,1.25112,0.0120829,0.0243723,4.7478e-07,0.38,0.88,0
0.0196858,-0.00743041,0.0276299,0.000165568,0.00833865,0.000674122,0,0,0.0501574,-0.02125,0,0.00350543,0,0,0,0.0276465,0.000149031,0.00833865,1.40522,0.0120447,0.0244538,4.7691e-07,0.4,0.88,0
0.0206899,-0.00746353,0.0276465,7.84833e-05,0.00831749,0.000723801,0,0,0.0502554,-0.0214214,0,0.00376377,0,0,0,0.0276655,5.94929e-05,0.00831749,1.50293,0.0120141,0.0245421,4.79575e-07,0.42,0.88,0
0.021696,-0.00748573,0.0276734,-4.23546e-06,0.00830076,0.000748223,0,0,0.0503689,-0.021593,0,0.00389076,0,0,0,0.0276936,-2.44478e-05,0.00830076,1.5474,0.01199,0.0246342,4.82613e-07,0.44,0.88,0
0.0227046,-0.00749984,0.0277078,-8.19068e-05,0.00828778,0.000748683,0,0,0.0504921,-0.0217612,0,0.00389315,0,0,0,0.027728,-0.000102062,0.00828778,1.54211,0.0119712,0.0247267,4.85856e-07,0.46,0.88,0
0.0237157,-0.00750857,0.0277467,-0.000153456,0.00827796,0.000726749,0,0,0.0506186,-0.0219217,0,0.00377909,0,0,0,0.0277656,-0.000172373,0.00827796,1.49111,0.0119571,0.0248164,4.89138e-07,0.48,0.88,0
0.0247294,-0.00751443,0.027787,-0.00021756,0.00827084,0.000684361,0,0,0.0507421,-0.0220698,0,0.00355868,0,0,0,0.0278037,-0.000234274,0.00827084,1.39905,0.0119468,0.0248998,4.92301e-07,0.5,0.88,0
0.0257454,-0.00751968,0.0278262,-0.000272812,0.00826602,0.000623877,0,0,0.0508565,-0.022201,0,0.00324416,0,0,0,0.0278401,-0.000286657,0.00826602,1.27129,0.0119398,0.024974,4.95198e-07,0.52,0.88,0
0.0267636,-0.00752636,0.0278618,-0.00031787,0.00826319,0.000548078,0,0,0.0509565,-0.0223108,0,0.00285001,0,0,0,0.0278725,-0.000328526,0.00826319,1.11381,0.0119357,0.0250364,4.97698e-07,0.54,0.88,0
0.0277837,-0.00753616,0.0278918,-0.000351612,0.00826206,0.000460125,0,0,0.0510373,-0.0223955,0,0.00239265,0,0,0,0.0278993,-0.000359106,0.00826206,0.933099,0.0119341,0.0250847,4.99695e-07,0.56,0.88,0
0.0288051,-0.00755046,0.0279145,-0.000373257,0.00826237,0.00036347,0,0,0.0510955,-0.0224526,0,0.00189004,0,0,0,0.0279192,-0.000377927,0.00826237,0.736033,0.0119345,0.0251174,5.01106e-07,0.58,0.88,0
0.0298275,-0.00757027,0.0279288,-0.000382461,0.00826389,0.000261738,0,0,0.0511287,-0.0224805,0,0.00136104,0,0,0,0.0279312,-0.000384881,0.00826389,0.52964,0.0119367,0.0251337,5.01879e-07,0.6,0.88,0
0.0308503,-0.00759624,0.027934,-0.000379368,0.00826639,0.000158584,0,0,0.0511358,-0.022479,0,0.000824635,0,0,0,0.0279349,-0.000380256,0.00826639,0.320901,0.0119403,0.0251333,5.01992e-07,0.62,0.88,0
0.0318729,-0.00762866,0.0279301,-0.000364624,0.00826963,5.75401e-05,0,0,0.0511171,-0.0224491,0,0.000299209,0,0,0,0.0279302,-0.000364741,0.00826963,0.116516,0.011945,0.0251167,5.01453e-07,0.64,0.88,0
0.0328949,-0.00766749,0.0279173,-0.000339347,0.0082734,-3.81332e-05,0,0,0.0510742,-0.0223931,0,-0.000198293,0,0,0,0.0279174,-0.000339399,0.0082734,-0.0773221,0.0119505,0.025085,5.00298e-07,0.66,0.88,0
0.0339159,-0.00771234,0.0278966,-0.000305058,0.00827745,-0.000125582,0,0,0.0510097,-0.0223145,0,-0.000653028,0,0,0,0.0278971,-0.000305617,0.00827745,-0.255133,0.0119563,0.0250399,4.98589e-07,0.68,0.88,0
0.0349353,-0.00776257,0.0278689,-0.000263574,0.00828159,-0.000202466,0,0,0.0509269,-0.0222174,0,-0.00105282,0,0,0,0.0278703,-0.000265031,0.00828159,-0.412322,0.0119623,0.0249836,4.96408e-07,0.7,0.88,0
0.035953,-0.0078173,0.0278356,-0.000216895,0.00828561,-0.000267024,0,0,0.05083,-0.0221065,0,-0.00138853,0,0,0,0.0278381,-0.000219436,0.00828561,-0.545317,0.0119681,0.0249185,4.9385e-07,0.72,0.88,0
0.0369685,-0.00787547,0.0277982,-0.000167064,0.00828935,-0.000318109,0,0,0.0507231,-0.0219867,0,-0.00165417,0,0,0,0.0278018,-0.000170682,0.00828935,-0.651636,0.0119735,0.0248472,4.91022e-07,0.74,0.88,0
0.0379819,-0.00793589,0.0277583,-0.00011605,0.00829267,-0.000355174,0,0,0.0506106,-0.0218627,0,-0.0018469,0,0,0,0.0277628,-0.000120575,0.00829267,-0.729903,0.0119783,0.0247725,4.88031e-07,0.76,0.88,0
0.038993,-0.0079973,0.0277172,-6.56359e-05,0.00829548,-0.000378222,0,0,0.0504966,-0.0217389,0,-0.00196675,0,0,0,0.0277224,-7.07839e-05,0.00829548,-0.779803,0.0119824,0.0246968,4.84981e-07,0.78,0.88,0
0.0400018,-0.00805842,0.0276765,-1.73396e-05,0.00829774,-0.000387733,0,0,0.0503847,-0.0216192,0,-0.00201621,0,0,0,0.0276819,-2.27671e-05,0.00829774,-0.801972,0.0119856,0.0246224,4.81968e-07,0.8,0.88,0
0.0410083,-0.00811798,0.0276371,2.76316e-05,0.00829942,-0.000384566,0,0,0.050278,-0.0215067,0,-0.00199974,0,0,0,0.0276425,2.22761e-05,0.00829942,-0.797854,0.0119881,0.0245514,4.79074e-07,0.82,0.88,0
0.0420129,-0.00817476,0.0276002,6.83973e-05,0.00830058,-0.00036986,0,0,0.050179,-0.0214037,0,-0.00192327,0,0,0,0.0276052,6.34295e-05,0.00830058,-0.769521,0.0119897,0.0244853,4.76371e-07,0.84,0.88,0
0.0430155,-0.00822764,0.0275665,0.000104388,0.00830126,-0.00034493,0,0,0.0500896,-0.0213119,0,-0.00179363,0,0,0,0.0275708,0.000100056,0.00830126,-0.719496,0.0119907,0.0244256,4.73911e-07,0.86,0.88,0
0.0440165,-0.00827559,0.0275365,0.000135308,0.00830155,-0.000311184,0,0,0.050011,-0.0212322,0,-0.00161816,0,0,0,0.0275401,0.000131774,0.00830155,-0.650572,0.0119911,0.0243729,4.71735e-07,0.88,0.88,0
0.0450159,-0.0083177,0.0275108,0.000161078,0.00830156,-0.00027005,0,0,0.049944,-0.0211653,0,-0.00140426,0,0,0,0.0275135,0.000158412,0.00830156,-0.565663,0.0119911,0.024328,4.69871e-07,0.9,0.88,0
0.0460142,-0.00835322,0.0274895,0.000181776,0.00830139,-0.000222923,0,0,0.0498892,-0.021111,0,-0.0011592,0,0,0,0.0274913,0.000179956,0.00830139,-0.467685,0.0119909,0.0242912,4.68335e-07,0.92,0.88,0
0.0470115,-0.0083815,0.0274729,0.000197571,0.00830114,-0.000171134,0,0,0.0498466,-0.0210693,0,-0.000889896,0,0,0,0.027474,0.000196497,0.00830114,-0.359473,0.0119905,0.0242626,4.67137e-07,0.94,0.88,0
0.0480081,-0.00840206,0.027461,0.000208663,0.00830089,-0.000115938,0,0,0.0498162,-0.0210398,0,-0.000602876,0,0,0,0.0274615,0.00020817,0.00830089,-0.243744,0.0119902,0.0242421,4.66281e-07,0.96,0.88,0
0.0490042,-0.00841453,0.0274538,0.000215235,0.00830071,-5.85173e-05,0,0,0.0497981,-0.0210222,0,-0.00030429,0,0,0,0.0274539,0.000215109,0.00830071,-0.123089,0.0119899,0.0242299,4.65767e-07,0.98,0.88,0
0.05,-0.00841871,0.0274514,0.000217411,0.00830065,-4.02029e-05,0,0,0.049792,-0.0210164,0,-0.000209055,0,0,0,0.0274515,0.000217351,0.00830065,-0.0845798,0.0119898,0.0242259,4.656e-07,1,0.88,0
0,0,0.0288943,0.0123833,0.0123833,-0.00729303,0,0,0.0429287,4.33681e-19,0,-0.0379237,0,0,0,0.0316543,0.00962326,0.0123833,-20.7289,0.0178869,0.0207889,4.34147e-07,0,0.9,0
0.000858573,-0.000758475,0.0287259,0.010428,0.0117462,-0.00717111,0,0,0.0441473,-0.00342729,0,-0.0372898,0,0,0,0.0312014,0.00795245,0.0117462,-19.045,0.0169667,0.0216034,4.64461e-07,0.02,0.9,0
0.00176589,-0.00154069,0.0292044,0.00847615,0.0113042,-0.00692423,0,0,0.0465406,-0.00735284,0,-0.036006,0,0,0,0.0313046,0.00637593,0.0113042,-16.8734,0.0163282,0.0228664,5.19215e-07,0.04,0.9,0
0.0027202,-0.00231489,0.0295561,0.0066117,0.0108504,-0.00632835,0,0,0.0486351,-0.0110205,0,-0.0329074,0,0,0,0.0311858,0.00498202,0.0108504,-14.4411,0.0156727,0.0238181,5.54531e-07,0.06,0.9,0
0.00371129,-0.00305228,0.0297169,0.0050677,0.0104354,-0.00551438,0,0,0.050132,-0.013956,0,-0.0286748,0,0,0,0.0308943,0.0038903,0.0104354,-12.0525,0.0150733,0.024399,5.68957e-07,0.08,0.9,0
0.00472548,-0.00373406,0.0296793,0.00388626,0.0100697,-0.00463377,0,0,0.050985,-0.0160768,0,-0.0240956,0,0,0,0.0304865,0.00307906,0.0100697,-9.8818,0.0145451,0.0246666,5.67194e-07,0.1,0.9,0
0.00575069,-0.00435169,0.0294902,0.00301123,0.00975044,-0.00379382,0,0,0.0513234,-0.0175219,0,-0.0197279,0,0,0,0.0300231,0.00247839,0.00975044,-7.99492,0.014084,0.0247242,5.55817e-07,0.12,0.9,0
0.00677842,-0.00490367,0.029213,0.00236403,0.00947312,-0.00304337,0,0,0.0513238,-0.0184836,0,-0.0158255,0,0,0,0.0295537,0.00202338,0.00947312,-6.38661,0.0136834,0.0246642,5.402e-07,0.14,0.9,0
0.00780365,-0.00539236,0.0289036,0.00188206,0.00923569,-0.00239458,0,0,0.0511365,-0.0191194,0,-0.0124518,0,0,0,0.0291141,0.0016715,0.00923569,-5.02522,0.0133404,0.0245506,5.23854e-07,0.16,0.9,0
0.00882388,-0.00582174,0.028598,0.00151849,0.00903494,-0.0018419,0,0,0.0508639,-0.0195428,0,-0.00957787,0,0,0,0.0287227,0.00139378,0.00903494,-3.87338,0.0130505,0.024422,5.08637e-07,0.18,0.9,0
0.0098382,-0.00619641,0.028317,0.00123985,0.00886707,-0.00137371,0,0,0.0505699,-0.0198308,0,-0.0071433,0,0,0,0.0283866,0.00117033,0.00886707,-2.89688,0.012808,0.0242999,4.95393e-07,0.2,0.9,0
0.0108467,-0.00652098,0.028071,0.00102237,0.008728,-0.000977505,0,0,0.0502917,-0.0200346,0,-0.00508303,0,0,0,0.0281063,0.000987095,0.008728,-2.06701,0.0126071,0.0241959,4.84403e-07,0.22,0.9,0
0.0118499,-0.00679994,0.0278637,0.000849156,0.00861386,-0.000641998,0,0,0.0500496,-0.0201882,0,-0.00333839,0,0,0,0.027879,0.000833908,0.00861386,-1.3606,0.0124422,0.0241154,4.75663e-07,0.24,0.9,0
0.0128487,-0.00703751,0.0276955,0.000708042,0.00852106,-0.00035778,0,0,0.0498536,-0.0203139,0,-0.00186046,0,0,0,0.0277002,0.000703299,0.00852106,-0.759407,0.0123082,0.0240603,4.69039e-07,0.26,0.9,0
0.013844,-0.00723769,0.0275646,0.000590205,0.00844645,-0.000117324,0,0,0.0497073,-0.0204262,0,-0.000610086,0,0,0,0.0275651,0.000589695,0.00844645,-0.249199,0.0122004,0.0240305,4.6434e-07,0.28,0.9,0
0.0148369,-0.00740428,0.0274683,0.000489183,0.00838725,8.52181e-05,0,0,0.0496108,-0.020535,0,0.000443134,0,0,0,0.0274686,0.000488913,0.00838725,0.180976,0.0121149,0.0240248,4.61359e-07,0.3,0.9,0
0.0158284,-0.00754088,0.0274033,0.000400222,0.00834105,0.000254298,0,0,0.0495618,-0.0206462,0,0.00132235,0,0,0,0.0274057,0.000397827,0.00834105,0.539512,0.0120482,0.0240414,4.59893e-07,0.32,0.9,0
0.0168194,-0.00765094,0.027366,0.000319861,0.00830576,0.000393246,0,0,0.0495566,-0.0207633,0,0.00204488,0,0,0,0.0273717,0.000314144,0.00830576,0.832837,0.0119972,0.0240779,4.59742e-07,0.34,0.9,0
0.0178107,-0.00773781,0.0273529,0.000245643,0.00827956,0.000504532,0,0,0.0495907,-0.0208882,0,0.00262357,0,0,0,0.0273623,0.000236255,0.00827956,1.06592,0.0119594,0.0241316,4.60712e-07,0.36,0.9,0
0.018803,-0.0078047,0.0273604,0.000175925,0.00826088,0.00059,0,0,0.0496586,-0.0210209,0,0.003068,0,0,0,0.0273732,0.000163126,0.00826088,1.24274,0.0119324,0.0241996,4.62617e-07,0.38,0.9,0
0.0197971,-0.00785475,0.0273848,0.000109747,0.00824837,0.000651079,0,0,0.0497548,-0.0211604,0,0.00338561,0,0,0,0.0274003,9.42143e-05,0.00824837,1.36666,0.0119143,0.0242787,4.65271e-07,0.4,0.9,0
0.0207932,-0.00789098,0.0274227,4.67222e-05,0.00824083,0.00068898,0,0,0.0498729,-0.0213047,0,0.0035827,0,0,0,0.02744,2.93934e-05,0.00824083,1.44076,0.0119034,0.0243658,4.68493e-07,0.42,0.9,0
0.021792,-0.0079163,0.0274706,-1.30553e-05,0.00823726,0.000704864,0,0,0.0500067,-0.0214508,0,0.00366529,0,0,0,0.0274887,-3.11209e-05,0.00823726,1.46816,0.0118983,0.0244573,4.72102e-07,0.44,0.9,0
0.0227935,-0.00793349,0.0275251,-6.91042e-05,0.00823679,0.000699986,0,0,0.0501495,-0.0215953,0,0.00363993,0,0,0,0.0275428,-8.68495e-05,0.00823679,1.45219,0.0118976,0.02455,4.7592e-07,0.46,0.9,0
0.023798,-0.00794517,0.0275829,-0.000120657,0.00823866,0.000675812,0,0,0.0502949,-0.0217342,0,0.00351422,0,0,0,0.0275993,-0.000137134,0.00823866,1.39659,0.0119003,0.0246404,4.79778e-07,0.48,0.9,0
0.0248053,-0.00795375,0.0276409,-0.000166771,0.00824225,0.000634099,0,0,0.0504366,-0.0218634,0,0.00329731,0,0,0,0.0276554,-0.000181223,0.00824225,1.30561,0.0119055,0.0247255,4.83513e-07,0.5,0.9,0
0.0258154,-0.00796144,0.0276965,-0.000206437,0.00824701,0.000576942,0,0,0.0505686,-0.021979,0,0.0030001,0,0,0,0.0277084,-0.000218361,0.00824701,1.18402,0.0119123,0.0248023,4.86977e-07,0.52,0.9,0
0.026828,-0.00797016,0.027747,-0.0002387,0.0082525,0.000506774,0,0,0.0506858,-0.0220771,0,0.00263522,0,0,0,0.0277562,-0.000247874,0.0082525,1.03708,0.0119203,0.0248684,4.90039e-07,0.54,0.9,0
0.0278428,-0.00798156,0.0277905,-0.000262756,0.00825833,0.000426333,0,0,0.0507837,-0.0221548,0,0.00221693,0,0,0,0.027797,-0.000269234,0.00825833,0.870471,0.0119287,0.0249218,4.9259e-07,0.56,0.9,0
0.0288594,-0.00799696,0.0278253,-0.00027805,0.00826418,0.000338594,0,0,0.050859,-0.0222098,0,0.00176069,0,0,0,0.0278294,-0.000282129,0.00826418,0.690174,0.0119372,0.0249609,4.94548e-07,0.58,0.9,0
0.0298772,-0.00801735,0.0278503,-0.000284333,0.0082698,0.000246665,0,0,0.0509094,-0.0222407,0,0.00128266,0,0,0,0.0278525,-0.000286496,0.0082698,0.502278,0.0119453,0.0249849,4.95855e-07,0.6,0.9,0
0.0308958,-0.00804336,0.0278649,-0.000281709,0.00827494,0.000153679,0,0,0.0509338,-0.0222473,0,0.000799132,0,0,0,0.0278657,-0.000282549,0.00827494,0.312821,0.0119527,0.0249935,4.96486e-07,0.62,0.9,0
0.0319146,-0.00807532,0.0278688,-0.00027064,0.00827945,6.2664e-05,0,0,0.0509323,-0.0222302,0,0.000325853,0,0,0,0.0278689,-0.00027078,0.00827945,0.127592,0.0119592,0.024987,4.9644e-07,0.64,0.9,0
0.0329331,-0.00811321,0.0278625,-0.000251923,0.00828317,-2.35798e-05,0,0,0.0509062,-0.0221912,0,-0.000122615,0,0,0,0.0278625,-0.000251943,0.00828317,-0.0480545,0.0119646,0.0249662,4.95749e-07,0.66,0.9,0
0.0339508,-0.0081567,0.0278467,-0.000226645,0.008286,-0.000102587,0,0,0.0508577,-0.0221329,0,-0.000533454,0,0,0,0.027847,-0.00022702,0.008286,-0.20937,0.0119687,0.0249325,4.94463e-07,0.68,0.9,0
0.0349674,-0.00820523,0.0278224,-0.000196107,0.00828789,-0.000172318,0,0,0.0507897,-0.0220584,0,-0.000896053,0,0,0,0.0278235,-0.000197166,0.00828789,-0.35236,0.0119714,0.0248876,4.92658e-07,0.7,0.9,0
0.0359824,-0.00825801,0.0277911,-0.000161742,0.0082888,-0.000231215,0,0,0.0507059,-0.0219714,0,-0.00120232,0,0,0,0.027793,-0.000163655,0.0082888,-0.473886,0.0119727,0.0248337,4.90423e-07,0.72,0.9,0
0.0369956,-0.00831404,0.0277542,-0.000125023,0.00828874,-0.000278233,0,0,0.0506101,-0.0218758,0,-0.00144681,0,0,0,0.0277569,-0.000127799,0.00828874,-0.571734,0.0119726,0.024773,4.87856e-07,0.74,0.9,0
0.0380068,-0.00837224,0.0277133,-8.73706e-05,0.00828777,-0.000312832,0,0,0.0505063,-0.0217754,0,-0.00162673,0,0,0,0.0277168,-9.08904e-05,0.00828777,-0.644623,0.0119712,0.0247079,4.85061e-07,0.76,0.9,0
0.0390159,-0.00843142,0.02767,-5.0083e-05,0.00828598,-0.000334943,0,0,0.0503985,-0.0216738,0,-0.0017417,0,0,0,0.0276741,-5.41295e-05,0.00828598,-0.692172,0.0119686,0.0246405,4.82142e-07,0.78,0.9,0
0.0400227,-0.00849036,0.0276259,-1.42736e-05,0.00828349,-0.00034491,0,0,0.0502903,-0.0215742,0,-0.00179353,0,0,0,0.0276302,-1.85769e-05,0.00828349,-0.714822,0.011965,0.0245731,4.79196e-07,0.8,0.9,0
0.0410275,-0.00854786,0.0275823,1.91622e-05,0.00828044,-0.000343417,0,0,0.0501849,-0.0214793,0,-0.00178577,0,0,0,0.0275866,1.48842e-05,0.00828044,-0.713716,0.0119606,0.0245076,4.76311e-07,0.82,0.9,0
0.0420301,-0.00860275,0.0275405,4.95602e-05,0.00827702,-0.000331403,0,0,0.0500851,-0.0213914,0,-0.00172329,0,0,0,0.0275445,4.55658e-05,0.00827702,-0.690565,0.0119557,0.0244457,4.73566e-07,0.84,0.9,0
0.0430309,-0.00865392,0.0275015,7.64791e-05,0.00827341,-0.000309985,0,0,0.0499932,-0.021312,0,-0.00161192,0,0,0,0.027505,7.29758e-05,0.00827341,-0.647503,0.0119505,0.0243887,4.71026e-07,0.86,0.9,0
0.0440299,-0.00870039,0.0274663,9.96751e-05,0.00826979,-0.000280384,0,0,0.0499109,-0.0212423,0,-0.001458,0,0,0,0.0274692,9.68027e-05,0.00826979,-0.586941,0.0119453,0.0243378,4.68743e-07,0.88,0.9,0
0.0450273,-0.00874125,0.0274355,0.000119065,0.00826636,-0.000243862,0,0,0.0498397,-0.021183,0,-0.00126808,0,0,0,0.0274376,0.000116888,0.00826636,-0.511442,0.0119403,0.0242938,4.66758e-07,0.9,0.9,0
0.0460234,-0.00877575,0.0274096,0.00013468,0.00826329,-0.000201675,0,0,0.0497804,-0.0211344,0,-0.00104871,0,0,0,0.0274111,0.000133189,0.00826329,-0.423622,0.0119359,0.0242572,4.65101e-07,0.92,0.9,0
0.0470185,-0.00880324,0.0273891,0.000146625,0.00826072,-0.000155046,0,0,0.0497338,-0.0210967,0,-0.000806237,0,0,0,0.02739,0.000145742,0.00826072,-0.326074,0.0119322,0.0242284,4.63795e-07,0.94,0.9,0
0.0480128,-0.00882323,0.0273743,0.000155029,0.0082588,-0.000105148,0,0,0.0497003,-0.0210698,0,-0.000546769,0,0,0,0.0273747,0.000154623,0.0082588,-0.221329,0.0119294,0.0242077,4.62853e-07,0.96,0.9,0
0.0490065,-0.00883537,0.0273653,0.000160015,0.0082576,-5.31048e-05,0,0,0.0496801,-0.0210537,0,-0.000276145,0,0,0,0.0273654,0.000159911,0.0082576,-0.111841,0.0119276,0.0241953,4.62284e-07,0.98,0.9,0
0.05,-0.00883944,0.0273623,0.000161667,0.0082572,-3.91329e-05,0,0,0.0496733,-0.0210484,0,-0.000203491,0,0,0,0.0273624,0.00016161,0.0082572,-0.0824297,0.0119271,0.0241912,4.62098e-07,1,0.9,0
0,0,0.029902,0.0128152,0.0128152,-0.00801619,0,0,0.0444259,-6.50521e-19,0,-0.0416842,0,0,0,0.033074,0.00964324,0.0128152,-21.5882,0.0185108,0.0220168,5.09989e-07,0,0.92,0
0.000888518,-0.000833684,0.0296521,0.0103297,0.0119945,-0.00780636,0,0,0.0459096,-0.00432857,0,-0.040593,0,0,0,0.0324117,0.00757003,0.0119945,-19.4693,0.0173254,0.0229516,5.43987e-07,0.02,0.92,0
0.00183638,-0.00170256,0.0301205,0.00780957,0.011379,-0.00738322,0,0,0.0487278,-0.00928058,0,-0.0383928,0,0,0,0.0323425,0.00558757,0.011379,-16.7493,0.0164364,0.0243807,6.05101e-07,0.04,0.92,0
0.00283763,-0.0025554,0.0303783,0.0056264,0.0108014,-0.00648518,0,0,0.0509,-0.0134551,0,-0.0337229,0,0,0,0.0319746,0.00403018,0.0108014,-13.8276,0.0156021,0.0252492,6.30633e-07,0.06,0.92,0
0.00387238,-0.00335252,0.0303413,0.00403646,0.0103133,-0.00538336,0,0,0.0520728,-0.0163199,0,-0.0279935,0,0,0,0.0314004,0.00297738,0.0103133,-11.1298,0.014897,0.0255573,6.2519e-07,0.08,0.92,0
0.00492054,-0.00407471,0.0300511,0.00295775,0.00990266,-0.00432243,0,0,0.052386,-0.0180568,0,-0.0224766,0,0,0,0.030724,0.00228487,0.00990266,-8.84833,0.0143038,0.0254985,6.02245e-07,0.1,0.92,0
0.00596782,-0.00471795,0.0296106,0.00221311,0.00954712,-0.00340243,0,0,0.0521651,-0.0190685,0,-0.0176926,0,0,0,0.0300269,0.00179689,0.00954712,-6.97429,0.0137903,0.0252628,5.7291e-07,0.12,0.92,0
0.00700715,-0.00528583,0.0291318,0.00169243,0.00924727,-0.00263955,0,0,0.0516998,-0.0196426,0,-0.0137257,0,0,0,0.0293834,0.00144082,0.00924727,-5.44509,0.0133572,0.0249719,5.44209e-07,0.14,0.92,0
0.00803581,-0.00578429,0.0286756,0.00132061,0.00899888,-0.00201559,0,0,0.0511596,-0.0199635,0,-0.0104811,0,0,0,0.0288234,0.00117289,0.00899888,-4.19153,0.0129984,0.0246861,5.18952e-07,0.16,0.92,0
0.00905353,-0.00621973,0.028271,0.00104923,0.00879608,-0.0015058,0,0,0.0506349,-0.0201418,0,-0.00783017,0,0,0,0.0283541,0.000966186,0.00879608,-3.15654,0.0127054,0.0244327,4.97947e-07,0.18,0.92,0
0.0100612,-0.00659824,0.0279281,0.000846575,0.0086324,-0.00108737,0,0,0.0501688,-0.0202431,0,-0.00565433,0,0,0,0.0279717,0.000802985,0.0086324,-2.2956,0.012469,0.0242224,4.81103e-07,0.2,0.92,0
0.0110603,-0.00692539,0.0276476,0.000691635,0.00850177,-0.000741748,0,0,0.0497792,-0.0203064,0,-0.00385709,0,0,0,0.027668,0.00067124,0.00850177,-1.57502,0.0122803,0.0240571,4.68013e-07,0.22,0.92,0
0.0120524,-0.00720626,0.027426,0.000570221,0.00839887,-0.000454559,0,0,0.0494706,-0.0203545,0,-0.00236371,0,0,0,0.0274337,0.00056253,0.00839887,-0.969413,0.0121317,0.0239353,4.58193e-07,0.24,0.92,0
0.0130391,-0.00744546,0.027258,0.000472562,0.00831916,-0.000214934,0,0,0.0492409,-0.0204012,0,-0.00111766,0,0,0,0.0272597,0.000470838,0.00831916,-0.459719,0.0120166,0.0238535,4.51182e-07,0.26,0.92,0
0.014022,-0.0076472,0.0271376,0.000391801,0.00825881,-1.47547e-05,0,0,0.0490848,-0.0204542,0,-7.67243e-05,0,0,0,0.0271376,0.000391792,0.00825881,-0.031608,0.0119294,0.0238079,4.46568e-07,0.28,0.92,0
0.0150025,-0.00781542,0.027059,0.000323049,0.00821461,0.000151986,0,0,0.0489954,-0.0205181,0,0.000790327,0,0,0,0.0270599,0.000322185,0.00821461,0.325696,0.0118656,0.0237943,4.43994e-07,0.3,0.92,0
0.0159818,-0.00795381,0.0270167,0.000262797,0.00818384,0.000289692,0,0,0.0489653,-0.0205947,0,0.0015064,0,0,0,0.0270198,0.000259661,0.00818384,0.620305,0.0118211,0.0238085,4.43151e-07,0.32,0.92,0
0.0169611,-0.00806587,0.0270053,0.000208531,0.00816416,0.00040157,0,0,0.048987,-0.0206846,0,0.00208816,0,0,0,0.0270113,0.000202515,0.00816416,0.858363,0.0117927,0.0238466,4.43766e-07,0.34,0.92,0
0.0179413,-0.00815493,0.0270201,0.000158494,0.00815357,0.000489946,0,0,0.0490529,-0.0207872,0,0.00254772,0,0,0,0.027029,0.000149561,0.00815357,1.04459,0.0117774,0.0239045,4.45594e-07,0.36,0.92,0
0.0189232,-0.00822422,0.0270563,0.000111526,0.00815035,0.00055653,0,0,0.0491555,-0.0209009,0,0.00289396,0,0,0,0.0270678,0.000100036,0.00815035,1.18274,0.0117727,0.0239785,4.4841e-07,0.38,0.92,0
0.0199075,-0.00827682,0.0271096,6.69543e-05,0.00815297,0.000602632,0,0,0.0492873,-0.0210236,0,0.00313369,0,0,0,0.027123,5.35315e-05,0.00815297,1.27596,0.0117765,0.0240647,4.52002e-07,0.4,0.92,0
0.0208947,-0.00831572,0.0271758,2.45098e-05,0.0081601,0.000629346,0,0,0.0494409,-0.0211525,0,0.0032726,0,0,0,0.0271904,9.92987e-06,0.0081601,1.32712,0.0117868,0.0241594,4.56168e-07,0.42,0.92,0
0.0218852,-0.00834376,0.027251,-1.57424e-05,0.00817057,0.000637704,0,0,0.0496091,-0.0212844,0,0.00331606,0,0,0,0.0272659,-3.06487e-05,0.00817057,1.33904,0.0118019,0.0242589,4.60712e-07,0.44,0.92,0
0.0228791,-0.00836366,0.0273313,-5.34728e-05,0.00818336,0.000628806,0,0,0.0497848,-0.0214158,0,0.00326979,0,0,0,0.0273458,-6.79037e-05,0.00818336,1.31469,0.0118204,0.0243597,4.65448e-07,0.46,0.92,0
0.0238766,-0.00837794,0.0274134,-8.81576e-05,0.00819757,0.000603916,0,0,0.0499611,-0.0215429,0,0.00314037,0,0,0,0.0274266,-0.000101413,0.00819757,1.25737,0.0118409,0.0244584,4.70195e-07,0.48,0.92,0
0.0248775,-0.00838896,0.0274938,-0.000119154,0.00821241,0.000564536,0,0,0.0501317,-0.0216621,0,0.00293559,0,0,0,0.0275054,-0.000130691,0.00821241,1.17074,0.0118624,0.0245518,4.74786e-07,0.5,0.92,0
0.0258818,-0.00839884,0.0275698,-0.000145778,0.00822721,0.000512435,0,0,0.0502907,-0.0217698,0,0.00266466,0,0,0,0.0275793,-0.00015525,0.00822721,1.05886,0.0118837,0.0246371,4.79066e-07,0.52,0.92,0
0.0268892,-0.00840944,0.0276387,-0.000167381,0.0082414,0.000449661,0,0,0.050433,-0.0218628,0,0.00233824,0,0,0,0.027646,-0.00017465,0.0082414,0.926225,0.0119042,0.0247119,4.82901e-07,0.54,0.92,0
0.0278991,-0.00842235,0.0276985,-0.000183417,0.00825452,0.000378505,0,0,0.0505543,-0.0219386,0,0.00196823,0,0,0,0.0277036,-0.000188554,0.00825452,0.777615,0.0119232,0.0247743,4.86178e-07,0.56,0.92,0
0.0289113,-0.00843885,0.0277475,-0.000193508,0.00826619,0.000301448,0,0,0.0506514,-0.0219952,0,0.00156753,0,0,0,0.0277507,-0.00019676,0.00826619,0.618054,0.0119401,0.0248227,4.88807e-07,0.58,0.92,0
0.0299252,-0.00845989,0.0277845,-0.000197485,0.00827612,0.000221084,0,0,0.0507219,-0.0220314,0,0.00114964,0,0,0,0.0277863,-0.000199232,0.00827612,0.452653,0.0119544,0.0248563,4.9073e-07,0.6,0.92,0
0.0309402,-0.00848613,0.0278091,-0.000195415,0.0082841,0.000140022,0,0,0.0507649,-0.0220467,0,0.000728114,0,0,0,0.0278098,-0.000196115,0.0082841,0.286468,0.0119659,0.0248746,4.91914e-07,0.62,0.92,0
0.0319558,-0.00851787,0.027821,-0.000187607,0.00829,6.0786e-05,0,0,0.0507805,-0.0220418,0,0.000316087,0,0,0,0.0278211,-0.000187739,0.00829,0.124346,0.0119745,0.024878,4.92358e-07,0.64,0.92,0
0.0329714,-0.00855514,0.0278206,-0.000174597,0.00829379,-1.42829e-05,0,0,0.0507696,-0.0220178,0,-7.4271e-05,0,0,0,0.0278206,-0.000174604,0.00829379,-0.0292318,0.0119799,0.024867,4.92086e-07,0.66,0.92,0
0.0339866,-0.00859765,0.0278087,-0.000157115,0.00829547,-8.31175e-05,0,0,0.0507343,-0.0219767,0,-0.000432211,0,0,0,0.0278089,-0.000157362,0.00829547,-0.170288,0.0119823,0.0248429,4.91149e-07,0.68,0.92,0
0.0350008,-0.0086449,0.0277865,-0.000136041,0.00829513,-0.000143996,0,0,0.0506775,-0.021921,0,-0.00074878,0,0,0,0.0277872,-0.000136783,0.00829513,-0.295463,0.0119819,0.0248071,4.89619e-07,0.7,0.92,0
0.0360137,-0.00869615,0.0277554,-0.000112341,0.00829292,-0.000195593,0,0,0.0506024,-0.0218537,0,-0.00101708,0,0,0,0.0277568,-0.000113713,0.00829292,-0.40211,0.0119787,0.0247616,4.87585e-07,0.72,0.92,0
0.0370249,-0.0087505,0.0277171,-8.70117e-05,0.00828902,-0.000237001,0,0,0.0505129,-0.0217777,0,-0.0012324,0,0,0,0.0277191,-8.90317e-05,0.00828902,-0.488339,0.011973,0.0247084,4.85147e-07,0.74,0.92,0
0.0380342,-0.0088069,0.0276733,-6.10201e-05,0.00828368,-0.000267731,0,0,0.0504129,-0.0216962,0,-0.0013922,0,0,0,0.0276759,-6.36043e-05,0.00828368,-0.553032,0.0119653,0.0246497,4.82412e-07,0.76,0.92,0
0.0390414,-0.00886425,0.0276258,-3.52505e-05,0.00827716,-0.000287688,0,0,0.0503064,-0.0216123,0,-0.00149598,0,0,0,0.0276288,-3.82422e-05,0.00827716,-0.595817,0.0119559,0.0245876,4.79487e-07,0.78,0.92,0
0.0400465,-0.00892139,0.0275764,-1.04669e-05,0.00826978,-0.000297124,0,0,0.0501972,-0.0215286,0,-0.00154505,0,0,0,0.0275796,-1.36667e-05,0.00826978,-0.617009,0.0119452,0.0245242,4.76477e-07,0.8,0.92,0
0.0410493,-0.00897715,0.0275267,1.2712e-05,0.00826184,-0.000296584,0,0,0.0500888,-0.0214477,0,-0.00154224,0,0,0,0.0275299,9.5154e-06,0.00826184,-0.617517,0.0119338,0.0244615,4.73481e-07,0.82,0.92,0
0.04205,-0.00903041,0.0274784,3.38225e-05,0.00825366,-0.000286838,0,0,0.0499843,-0.0213716,0,-0.00149156,0,0,0,0.0274814,3.08249e-05,0.00825366,-0.598742,0.011922,0.0244014,4.70587e-07,0.84,0.92,0
0.0430487,-0.00908012,0.0274327,5.25512e-05,0.00824557,-0.000268817,0,0,0.0498865,-0.0213018,0,-0.00139785,0,0,0,0.0274353,4.99122e-05,0.00824557,-0.562456,0.0119103,0.0243452,4.67873e-07,0.86,0.92,0
0.0440455,-0.00912528,0.0273908,6.87194e-05,0.00823786,-0.000243554,0,0,0.0497977,-0.0212398,0,-0.00126648,0,0,0,0.027393,6.65485e-05,0.00823786,-0.510691,0.0118991,0.0242943,4.65404e-07,0.88,0.92,0
0.0450406,-0.00916502,0.0273538,8.22583e-05,0.00823082,-0.000212131,0,0,0.0497197,-0.0211862,0,-0.00110308,0,0,0,0.0273554,8.06084e-05,0.00823082,-0.445639,0.011889,0.0242497,4.63234e-07,0.9,0.92,0
0.0460343,-0.0091986,0.0273225,9.31798e-05,0.00822469,-0.000175641,0,0,0.0496542,-0.0211419,0,-0.000913331,0,0,0,0.0273236,9.20469e-05,0.00822469,-0.369562,0.0118801,0.0242122,4.61407e-07,0.92,0.92,0
0.0470267,-0.00922537,0.0272974,0.000101546,0.0082197,-0.000135156,0,0,0.0496021,-0.0211072,0,-0.000702811,0,0,0,0.0272981,0.000100874,0.0082197,-0.284735,0.0118729,0.0241825,4.59955e-07,0.94,0.92,0
0.0480183,-0.00924485,0.0272792,0.000107439,0.008216,-9.17205e-05,0,0,0.0495644,-0.0210823,0,-0.000476947,0,0,0,0.0272795,0.000107129,0.008216,-0.193403,0.0118676,0.024161,4.58901e-07,0.96,0.92,0
0.0490093,-0.00925668,0.0272682,0.000110938,0.00821373,-4.6342e-05,0,0,0.0495416,-0.0210673,0,-0.000240978,0,0,0,0.0272683,0.000110859,0.00821373,-0.097771,0.0118643,0.024148,4.58263e-07,0.98,0.92,0
0.05,-0.00926065,0.0272645,0.000112097,0.00821297,-3.81465e-05,0,0,0.0495339,-0.0210623,0,-0.000198362,0,0,0,0.0272645,0.000112044,0.00821297,-0.0804949,0.0118632,0.0241438,4.58053e-07,1,0.92,0
0,0,0.0315474,0.0135203,0.0135203,-0.00895786,0,0,0.0468704,-1.30104e-18,0,-0.0465809,0,0,0,0.0352416,0.0098261,0.0135203,-22.4112,0.0195293,0.0237846,6.35214e-07,0,0.94,0
0.000937408,-0.000931618,0.0311132,0.0100366,0.0123449,-0.00851318,0,0,0.0487975,-0.00600172,0,-0.0442685,0,0,0,0.0341222,0.00702756,0.0123449,-19.4662,0.0178316,0.0248661,6.6956e-07,0.02,0.94,0
0.0019519,-0.00191191,0.0314581,0.00661281,0.0114213,-0.00771394,0,0,0.0520958,-0.012502,0,-0.0401125,0,0,0,0.0336583,0.00441263,0.0114213,-15.9193,0.0164974,0.0264473,7.29912e-07,0.04,0.94,0
0.00302124,-0.00285309,0.0314597,0.00420867,0.0107005,-0.00627612,0,0,0.0539739,-0.0168788,0,-0.0326358,0,0,0,0.0328357,0.00283271,0.0107005,-12.3658,0.0154563,0.0269448,7.23434e-07,0.06,0.94,0
0.00411086,-0.00370507,0.0310385,0.00285245,0.0101673,-0.00485238,0,0,0.0542651,-0.0190185,0,-0.0252324,0,0,0,0.0318504,0.00204047,0.0101673,-9.49959,0.0146861,0.0266912,6.80062e-07,0.08,0.94,0
0.00519184,-0.00445633,0.0302951,0.0019946,0.00968692,-0.00367763,0,0,0.0535814,-0.02,0,-0.0191237,0,0,0,0.0307652,0.00152451,0.00968692,-7.28438,0.0139922,0.0261337,6.24254e-07,0.1,0.94,0
0.00625411,-0.00511442,0.0295184,0.00144392,0.00928869,-0.00277073,0,0,0.0525972,-0.0203964,0,-0.0144078,0,0,0,0.0297892,0.00117308,0.00928869,-5.58288,0.013417,0.0255443,5.73799e-07,0.12,0.94,0
0.00729573,-0.00568938,0.0288159,0.0010771,0.0089679,-0.00207425,0,0,0.0516048,-0.0205161,0,-0.0107861,0,0,0,0.0289701,0.000922848,0.0089679,-4.25294,0.0129536,0.0250146,5.32512e-07,0.14,0.94,0
0.0083183,-0.0061909,0.0282229,0.000825133,0.00871441,-0.00153472,0,0,0.0507221,-0.0205121,0,-0.00798055,0,0,0,0.0283086,0.000739431,0.00871441,-3.19617,0.0125875,0.0245723,5.00202e-07,0.16,0.94,0
0.00932462,-0.00662742,0.0277413,0.000646625,0.00851637,-0.0011105,0,0,0.0499847,-0.0204613,0,-0.00577461,0,0,0,0.0277867,0.000601186,0.00851637,-2.34309,0.0123014,0.0242183,4.75494e-07,0.18,0.94,0
0.0103177,-0.00700613,0.0273614,0.000516386,0.00836334,-0.000771853,0,0,0.049395,-0.0204021,0,-0.00401364,0,0,0,0.0273836,0.000494212,0.00836334,-1.64557,0.0120804,0.0239451,4.56961e-07,0.2,0.94,0
0.0113004,-0.00733324,0.0270707,0.000418595,0.0082468,-0.0004978,0,0,0.0489422,-0.0203533,0,-0.00258856,0,0,0,0.02708,0.000409301,0.0082468,-1.06965,0.011912,0.0237428,4.43396e-07,0.22,0.94,0
0.0122754,-0.00761412,0.0268567,0.000343028,0.00815993,-0.000273576,0,0,0.0486117,-0.0203239,0,-0.0014226,0,0,0,0.0268595,0.000340205,0.00815993,-0.591111,0.0117866,0.0236019,4.3384e-07,0.24,0.94,0
0.0132449,-0.00785355,0.0267081,0.000282885,0.0080973,-8.87342e-05,0,0,0.0483881,-0.0203175,0,-0.000461418,0,0,0,0.0267084,0.000282587,0.0080973,-0.192392,0.0116961,0.0235135,4.27548e-07,0.26,0.94,0
0.0142109,-0.00805586,0.0266151,0.000233527,0.00805458,6.4154e-05,0,0,0.0482573,-0.0203347,0,0.000333601,0,0,0,0.0266152,0.000233371,0.00805458,0.139329,0.0116344,0.0234699,4.23935e-07,0.28,0.94,0
0.0151752,-0.008225,0.026569,0.000191723,0.0080282,0.000190377,0,0,0.048206,-0.0203749,0,0.000989959,0,0,0,0.0265703,0.000190349,0.0080282,0.413501,0.0115963,0.0234643,4.22538e-07,0.3,0.94,0
0.0161391,-0.00836467,0.0265623,0.000155191,0.00801525,0.000293696,0,0,0.0482224,-0.0204362,0,0.00152722,0,0,0,0.0265656,0.000151925,0.00801525,0.637129,0.0115776,0.0234907,4.22979e-07,0.32,0.94,0
0.0171041,-0.00847833,0.0265885,0.000122325,0.00801324,0.000376779,0,0,0.0482956,-0.0205164,0,0.00195925,0,0,0,0.0265938,0.000116962,0.00801324,0.815457,0.0115747,0.0235437,4.24941e-07,0.34,0.94,0
0.018071,-0.0085693,0.0266415,9.20145e-05,0.00802005,0.000441521,0,0,0.0484157,-0.0206129,0,0.00229591,0,0,0,0.0266488,8.4674e-05,0.00802005,0.952485,0.0115845,0.0236184,4.28149e-07,0.36,0.94,0
0.0190407,-0.00864074,0.0267159,6.35367e-05,0.00803382,0.000489286,0,0,0.0485733,-0.0207227,0,0.00254429,0,0,0,0.0267248,5.45574e-05,0.00803382,1.05137,0.0116044,0.02371,4.32355e-07,0.38,0.94,0
0.0200139,-0.0086957,0.0268066,3.64775e-05,0.00805293,0.000521104,0,0,0.0487596,-0.0208428,0,0.00270974,0,0,0,0.0268168,2.63377e-05,0.00805293,1.11475,0.011632,0.0238142,4.37329e-07,0.4,0.94,0
0.0209911,-0.00873708,0.026909,1.06772e-05,0.00807591,0.000537823,0,0,0.0489661,-0.0209696,0,0.00279668,0,0,0,0.0269198,-7.20516e-08,0.00807591,1.145,0.0116652,0.0239269,4.42857e-07,0.42,0.94,0
0.0219725,-0.00876768,0.0270187,-1.38164e-05,0.00810147,0.000540244,0,0,0.0491848,-0.0210997,0,0.00280927,0,0,0,0.0270295,-2.46089e-05,0.00810147,1.14445,0.0117021,0.024044,4.4873e-07,0.44,0.94,0
0.0229585,-0.00879012,0.0271315,-3.67919e-05,0.00812842,0.000529225,0,0,0.0494081,-0.0212296,0,0.00275197,0,0,0,0.0271418,-4.70971e-05,0.00812842,1.11553,0.0117411,0.0241618,4.54749e-07,0.46,0.94,0
0.0239489,-0.00880688,0.0272437,-5.7919e-05,0.00815575,0.000505754,0,0,0.0496288,-0.0213555,0,0.00262992,0,0,0,0.0272531,-6.72847e-05,0.00815575,1.0609,0.0117805,0.0242769,4.60725e-07,0.48,0.94,0
0.0249436,-0.00882023,0.0273518,-7.67949e-05,0.00818251,0.000471011,0,0,0.0498402,-0.0214742,0,0.00244926,0,0,0,0.0273599,-8.48808e-05,0.00818251,0.983511,0.0118192,0.0243859,4.66477e-07,0.5,0.94,0
0.0259425,-0.00883223,0.0274527,-9.29924e-05,0.00820792,0.000426391,0,0,0.0500365,-0.0215824,0,0.00221723,0,0,0,0.0274593,-9.9591e-05,0.00820792,0.88662,0.0118559,0.024486,4.71843e-07,0.52,0.94,0
0.0269451,-0.00884468,0.0275438,-0.000106107,0.0082313,0.000373506,0,0,0.0502124,-0.0216773,0,0.00194223,0,0,0,0.0275488,-0.000111151,0.0082313,0.773788,0.0118897,0.0245747,4.76677e-07,0.54,0.94,0
0.027951,-0.00885911,0.0276228,-0.000115798,0.00825209,0.000314168,0,0,0.0503637,-0.0217565,0,0.00163367,0,0,0,0.0276263,-0.000119356,0.00825209,0.648824,0.0119197,0.0246502,4.80857e-07,0.56,0.94,0
0.0289596,-0.00887677,0.027688,-0.000121831,0.00826986,0.000250337,0,0,0.0504873,-0.0218184,0,0.00130175,0,0,0,0.0276903,-0.000124084,0.00826986,0.515705,0.0119454,0.0247108,4.84288e-07,0.58,0.94,0
0.0299705,-0.0088986,0.0277385,-0.000124097,0.00828431,0.000184062,0,0,0.0505808,-0.0218619,0,0.000957124,0,0,0,0.0277397,-0.000125313,0.00828431,0.378478,0.0119662,0.0247557,4.86903e-07,0.6,0.94,0
0.0309829,-0.00892523,0.0277735,-0.000122636,0.00829525,0.000117409,0,0,0.0506434,-0.0218865,0,0.000610527,0,0,0,0.027774,-0.00012313,0.00829525,0.241141,0.011982,0.0247845,4.88667e-07,0.62,0.94,0
0.0319962,-0.00895699,0.027793,-0.000117636,0.00830262,5.23771e-05,0,0,0.0506751,-0.0218927,0,0.000272361,0,0,0,0.0277931,-0.000117734,0.00830262,0.107521,0.0119927,0.0247972,4.89576e-07,0.64,0.94,0
0.0330099,-0.00899392,0.0277976,-0.000109423,0.00830645,-9.17632e-06,0,0,0.050677,-0.0218813,0,-4.77169e-05,0,0,0,0.0277976,-0.000109427,0.00830645,-0.0188399,0.0119982,0.0247945,4.89657e-07,0.66,0.94,0
0.0340233,-0.00903577,0.0277881,-9.84488e-05,0.0083069,-6.56076e-05,0,0,0.0506512,-0.0218539,0,-0.000341159,0,0,0,0.0277883,-9.86031e-05,0.0083069,-0.134796,0.0119989,0.0247776,4.88964e-07,0.68,0.94,0
0.0350359,-0.00908208,0.0277659,-8.52511e-05,0.00830421,-0.000115543,0,0,0.0506005,-0.0218126,0,-0.000600825,0,0,0,0.0277664,-8.57305e-05,0.00830421,-0.237692,0.011995,0.0247478,4.87572e-07,0.7,0.94,0
0.0360473,-0.00913215,0.0277327,-7.04266e-05,0.00829868,-0.000157921,0,0,0.0505284,-0.0217597,0,-0.000821187,0,0,0,0.0277336,-7.13236e-05,0.00829868,-0.325424,0.011987,0.0247071,4.85579e-07,0.72,0.94,0
0.0370571,-0.00918515,0.0276903,-5.45897e-05,0.00829071,-0.000192007,0,0,0.0504389,-0.0216978,0,-0.000998437,0,0,0,0.0276916,-5.59184e-05,0.00829071,-0.396487,0.0119755,0.0246575,4.83093e-07,0.74,0.94,0
0.0380649,-0.00924009,0.0276408,-3.83376e-05,0.00828073,-0.000217401,0,0,0.0503361,-0.0216296,0,-0.00113048,0,0,0,0.0276425,-4.0045e-05,0.00828073,-0.449983,0.0119611,0.0246012,4.80234e-07,0.76,0.94,0
0.0390705,-0.00929591,0.0275862,-2.22184e-05,0.00826921,-0.000234013,0,0,0.0502243,-0.0215577,0,-0.00121687,0,0,0,0.0275882,-2.42017e-05,0.00826921,-0.4856,0.0119444,0.0245403,4.7712e-07,0.78,0.94,0
0.0400738,-0.00935151,0.0275288,-6.70691e-06,0.00825662,-0.000242034,0,0,0.0501076,-0.0214847,0,-0.00125858,0,0,0,0.0275309,-8.83419e-06,0.00825662,-0.503571,0.0119262,0.0244771,4.7387e-07,0.8,0.94,0
0.0410748,-0.00940577,0.0274704,7.81071e-06,0.00824347,-0.000241889,0,0,0.0499901,-0.0214127,0,-0.00125782,0,0,0,0.0274726,5.68034e-06,0.00824347,-0.504605,0.0119072,0.0244136,4.70597e-07,0.82,0.94,0
0.0420734,-0.00945761,0.0274131,2.10435e-05,0.00823023,-0.000234189,0,0,0.0498754,-0.0213439,0,-0.00121778,0,0,0,0.0274151,1.90415e-05,0.00823023,-0.489805,0.0118881,0.0243518,4.67403e-07,0.84,0.94,0
0.0430698,-0.009506,0.0273584,3.27935e-05,0.00821736,-0.000219682,0,0,0.0497667,-0.0212799,0,-0.00114234,0,0,0,0.0273602,3.10275e-05,0.00821736,-0.460584,0.0118695,0.0242935,4.64382e-07,0.86,0.94,0
0.0440641,-0.00954998,0.027308,4.29456e-05,0.00820529,-0.000199199,0,0,0.0496671,-0.0212221,0,-0.00103583,0,0,0,0.0273095,4.14903e-05,0.00820529,-0.418573,0.0118521,0.02424,4.61613e-07,0.88,0.94,0
0.0450565,-0.0095887,0.0272632,5.14537e-05,0.00819439,-0.000173619,0,0,0.0495788,-0.0211716,0,-0.000902821,0,0,0,0.0272643,5.0346e-05,0.00819439,-0.365545,0.0118363,0.0241928,4.59164e-07,0.9,0.94,0
0.0460473,-0.00962142,0.027225,5.8322e-05,0.008185,-0.000143836,0,0,0.049504,-0.0211294,0,-0.000747948,0,0,0,0.0272258,5.75605e-05,0.008185,-0.303345,0.0118228,0.0241528,4.57089e-07,0.92,0.94,0
0.0470367,-0.00964752,0.0271944,6.35866e-05,0.00817741,-0.000110732,0,0,0.0494443,-0.0210959,0,-0.000575808,0,0,0,0.0271949,6.31346e-05,0.00817741,-0.233843,0.0118118,0.0241209,4.55433e-07,0.94,0.94,0
0.048025,-0.00966652,0.0271721,6.72969e-05,0.00817182,-7.51704e-05,0,0,0.0494007,-0.0210718,0,-0.000390886,0,0,0,0.0271723,6.70884e-05,0.00817182,-0.158898,0.0118037,0.0240977,4.54228e-07,0.96,0.94,0
0.0490127,-0.00967806,0.0271585,6.95006e-05,0.00816841,-3.79875e-05,0,0,0.0493743,-0.0210572,0,-0.000197535,0,0,0,0.0271586,6.94473e-05,0.00816841,-0.0803468,0.0117988,0.0240836,4.53496e-07,0.98,0.94,0
0.05,-0.00968193,0.027154,7.02311e-05,0.00816726,-3.7209e-05,0,0,0.0493654,-0.0210523,0,-0.000193487,0,0,0,0.027154,7.018e-05,0.00816726,-0.0787156,0.0117971,0.024079,4.53254e-07,1,0.94,0
0,0,0.0346531,0.0148513,0.0148513,-0.0103245,0,0,0.0514846,0,0,-0.0536876,0,0,0,0.0390569,0.0104475,0.0148513,-23.1,0.0214519,0.0266814,8.86631e-07,0,0.96,0
0.00102969,-0.00107375,0.0333679,0.00884066,0.0126626,-0.00929774,0,0,0.0538339,-0.00993699,0,-0.0483482,0,0,0,0.0364941,0.00571453,0.0126626,-18.5839,0.0182904,0.0279606,8.93296e-07,0.02,0.96,0
0.00215336,-0.00220264,0.0333636,0.00426929,0.0112899,-0.00734563,0,0,0.0573917,-0.0182535,0,-0.0381973,0,0,0,0.035113,0.00251988,0.0112899,-13.3958,0.0163076,0.0292127,9.0207e-07,0.04,0.96,0
0.00332536,-0.00323056,0.0329205,0.00268086,0.0106804,-0.00528542,0,0,0.0578242,-0.0207988,0,-0.0274842,0,0,0,0.0338177,0.00178367,0.0106804,-9.63402,0.0154273,0.0286414,8.2582e-07,0.06,0.96,0
0.00446633,-0.00411326,0.0314934,0.00170308,0.00995896,-0.00371147,0,0,0.0559897,-0.0214653,0,-0.0192996,0,0,0,0.0319489,0.00124765,0.00995896,-6.99581,0.0143852,0.0274045,7.08142e-07,0.08,0.96,0
0.00556494,-0.00487471,0.0301355,0.00114207,0.00938327,-0.00265048,0,0,0.0539558,-0.0214271,0,-0.0137825,0,0,0,0.0303758,0.000901759,0.00938327,-5.18057,0.0135536,0.0262806,6.15415e-07,0.1,0.96,0
0.00662456,-0.0055338,0.0290135,0.00079974,0.00894398,-0.00191214,0,0,0.0521808,-0.021175,0,-0.00994315,0,0,0,0.0291425,0.000670738,0.00894398,-3.8596,0.0129191,0.025368,5.47683e-07,0.12,0.96,0
0.00765218,-0.00610647,0.0281354,0.00058267,0.00861541,-0.00138361,0,0,0.0507519,-0.0208851,0,-0.00719479,0,0,0,0.0282047,0.000513363,0.00861541,-2.86761,0.0124445,0.0246596,4.99224e-07,0.14,0.96,0
0.00865463,-0.00660478,0.0274629,0.000438873,0.00837053,-0.000991956,0,0,0.0496401,-0.0206223,0,-0.00515817,0,0,0,0.0274993,0.000402511,0.00837053,-2.09936,0.0120908,0.0241209,4.64558e-07,0.16,0.96,0
0.00963778,-0.00703818,0.0269568,0.000339793,0.00818897,-0.000693143,0,0,0.0487963,-0.0204079,0,-0.00360434,0,0,0,0.0269748,0.000321755,0.00818897,-1.49071,0.0118285,0.0237191,4.39811e-07,0.18,0.96,0
0.0106065,-0.00741432,0.0265843,0.000269001,0.00805598,-0.00045947,0,0,0.0481735,-0.0202461,0,-0.00238924,0,0,0,0.0265923,0.000260981,0.00805598,-0.99999,0.0116364,0.0234275,4.22352e-07,0.2,0.96,0
0.0115647,-0.00773953,0.0263196,0.000216678,0.00796087,-0.000273094,0,0,0.0477326,-0.0201349,0,-0.00142009,0,0,0,0.0263224,0.000213821,0.00796087,-0.599353,0.011499,0.0232252,4.10388e-07,0.22,0.96,0
0.0125158,-0.00801922,0.0261427,0.00017672,0.00789581,-0.000122195,0,0,0.0474418,-0.0200696,0,-0.000635411,0,0,0,0.0261432,0.000176145,0.00789581,-0.269623,0.0114051,0.023096,4.02676e-07,0.24,0.96,0
0.0134624,-0.00825815,0.0260378,0.000145188,0.00785488,1.22421e-06,0,0,0.0472755,-0.0200452,0,6.36587e-06,0,0,0,0.0260378,0.000145188,0.00785488,0.00270896,0.0113459,0.023027,3.98327e-07,0.26,0.96,0
0.0144068,-0.00846059,0.0259922,0.000119459,0.0078335,0.000102651,0,0,0.0472126,-0.0200565,0,0.000533787,0,0,0,0.0259926,0.000119052,0.0078335,0.227319,0.0113151,0.0230077,3.96689e-07,0.28,0.96,0
0.0153509,-0.00863041,0.0259957,9.77384e-05,0.00782802,0.000185886,0,0,0.0472359,-0.0200987,0,0.000966609,0,0,0,0.025997,9.64043e-05,0.00782802,0.411221,0.0113071,0.0230296,3.97265e-07,0.3,0.96,0
0.0162962,-0.00877126,0.0260394,7.87796e-05,0.00783545,0.000253564,0,0,0.0473303,-0.0201674,0,0.00131854,0,0,0,0.0260419,7.63032e-05,0.00783545,0.559552,0.0113179,0.0230856,3.99663e-07,0.32,0.96,0
0.0172441,-0.00888652,0.026116,6.17149e-05,0.0078533,0.000307511,0,0,0.0474829,-0.0202581,0,0.00159906,0,0,0,0.0261196,5.8086e-05,0.0078533,0.67612,0.0113437,0.0231692,4.03559e-07,0.34,0.96,0
0.0181956,-0.00897945,0.0262187,4.59519e-05,0.00787939,0.000348989,0,0,0.0476822,-0.0203669,0,0.00181474,0,0,0,0.0262233,4.12993e-05,0.00787939,0.763805,0.0113813,0.0232748,4.08674e-07,0.36,0.96,0
0.0191514,-0.00905313,0.0263417,3.11087e-05,0.00791183,0.00037889,0,0,0.0479176,-0.0204899,0,0.00197023,0,0,0,0.0263471,2.56535e-05,0.00791183,0.82487,0.0114282,0.0233973,4.14756e-07,0.38,0.96,0
0.0201123,-0.00911053,0.0264794,1.69708e-05,0.0079489,0.000397868,0,0,0.0481792,-0.020623,0,0.00206891,0,0,0,0.0264853,1.09901e-05,0.0079489,0.861196,0.0114817,0.0235319,4.21572e-07,0.4,0.96,0
0.0210786,-0.00915451,0.0266267,3.4602e-06,0.00798905,0.000406464,0,0,0.0484579,-0.0207625,0,0.00211361,0,0,0,0.0266329,-2.74394e-06,0.00798905,0.874478,0.0115397,0.023674,4.28895e-07,0.42,0.96,0
0.0220506,-0.00918775,0.0267789,-9.3906e-06,0.00803085,0.00040519,0,0,0.0487449,-0.0209046,0,0.00210699,0,0,0,0.026785,-1.5518e-05,0.00803085,0.866371,0.0116001,0.0238195,4.3651e-07,0.44,0.96,0
0.0230284,-0.00921284,0.0269315,-2.14622e-05,0.00807303,0.00039461,0,0,0.0490322,-0.0210457,0,0.00205197,0,0,0,0.0269373,-2.72383e-05,0.00807303,0.838609,0.011661,0.0239642,4.44203e-07,0.46,0.96,0
0.0240119,-0.00923216,0.0270805,-3.25725e-05,0.00811438,0.000375391,0,0,0.0493119,-0.0211821,0,0.00195203,0,0,0,0.0270857,-3.7769e-05,0.00811438,0.79308,0.0117208,0.0241045,4.51769e-07,0.48,0.96,0
0.0250008,-0.00924793,0.0272221,-4.25015e-05,0.00815387,0.000348342,0,0,0.0495773,-0.0213106,0,0.00181138,0,0,0,0.0272265,-4.69513e-05,0.00815387,0.731873,0.0117778,0.024237,4.59013e-07,0.5,0.96,0
0.025995,-0.00926214,0.0273529,-5.10167e-05,0.00819056,0.000314435,0,0,0.049822,-0.0214281,0,0.00163506,0,0,0,0.0273565,-5.46241e-05,0.00819056,0.657302,0.0118308,0.0243586,4.65754e-07,0.52,0.96,0
0.0269937,-0.00927653,0.0274701,-5.78984e-05,0.00822367,0.000274801,0,0,0.0500408,-0.0215321,0,0.00142897,0,0,0,0.0274729,-6.06414e-05,0.00822367,0.571885,0.0118786,0.0244669,4.71829e-07,0.54,0.96,0
0.0279966,-0.00929261,0.0275715,-6.29626e-05,0.00825256,0.000230719,0,0,0.0502292,-0.0216203,0,0.00119974,0,0,0,0.0275734,-6.48887e-05,0.00825256,0.478315,0.0119204,0.0245596,4.77102e-07,0.56,0.96,0
0.0290029,-0.00931159,0.0276552,-6.60803e-05,0.00827674,0.000183576,0,0,0.050384,-0.0216913,0,0.000954596,0,0,0,0.0276564,-6.72959e-05,0.00827674,0.379402,0.0119553,0.0246353,4.81466e-07,0.58,0.96,0
0.0300119,-0.00933437,0.0277202,-6.71922e-05,0.0082959,0.00013483,0,0,0.0505032,-0.021744,0,0.000701115,0,0,0,0.0277209,-6.78464e-05,0.0082959,0.278001,0.011983,0.024693,4.84846e-07,0.6,0.96,0
0.031023,-0.00936159,0.0277659,-6.63174e-05,0.00830988,8.59487e-05,0,0,0.0505857,-0.0217781,0,0.000446933,0,0,0,0.0277662,-6.65828e-05,0.00830988,0.176933,0.0120032,0.0247323,4.87202e-07,0.62,0.96,0
0.0320354,-0.00939358,0.0277924,-6.3555e-05,0.00831867,3.83578e-05,0,0,0.0506318,-0.0217938,0,0.000199461,0,0,0,0.0277925,-6.36078e-05,0.00831867,0.0788964,0.0120159,0.0247533,4.88532e-07,0.64,0.96,0
0.0330483,-0.00943039,0.0278005,-5.90792e-05,0.00832242,-6.61817e-06,0,0,0.0506429,-0.0217919,0,-3.44145e-05,0,0,0,0.0278005,-5.90807e-05,0.00832242,-0.0136109,0.0120213,0.0247568,4.88867e-07,0.66,0.96,0
0.0340611,-0.00947181,0.0277912,-5.31289e-05,0.00832141,-4.78061e-05,0,0,0.0506214,-0.0217738,0,-0.000248592,0,0,0,0.0277912,-5.3211e-05,0.00832141,-0.0983713,0.0120198,0.0247439,4.88271e-07,0.68,0.96,0
0.0350731,-0.00951741,0.0277662,-4.59921e-05,0.00831605,-8.42253e-05,0,0,0.0505703,-0.0217413,0,-0.000437972,0,0,0,0.0277664,-4.62472e-05,0.00831605,-0.17351,0.0120121,0.0247163,4.86835e-07,0.7,0.96,0
0.0360839,-0.00956654,0.0277275,-3.79869e-05,0.00830685,-0.000115116,0,0,0.0504937,-0.0216966,0,-0.000598606,0,0,0,0.027728,-3.84641e-05,0.00830685,-0.237545,0.0119988,0.0246759,4.84671e-07,0.72,0.96,0
0.0370929,-0.00961841,0.0276774,-2.94417e-05,0.00829439,-0.000139957,0,0,0.0503959,-0.021642,0,-0.000727775,0,0,0,0.0276781,-3.01486e-05,0.00829439,-0.289411,0.0119808,0.0246249,4.81909e-07,0.74,0.96,0
0.0380997,-0.00967209,0.0276184,-2.0676e-05,0.00827932,-0.00015846,0,0,0.0502816,-0.02158,0,-0.000823993,0,0,0,0.0276193,-2.15844e-05,0.00827932,-0.328473,0.011959,0.0245658,4.78686e-07,0.76,0.96,0
0.0391042,-0.00972656,0.027553,-1.19835e-05,0.00826231,-0.000170565,0,0,0.0501559,-0.0215132,0,-0.00088694,0,0,0,0.0275541,-1.30389e-05,0.00826231,-0.354514,0.0119345,0.024501,4.75145e-07,0.78,0.96,0
0.040106,-0.00978077,0.0274838,-3.61884e-06,0.00824405,-0.000176412,0,0,0.0500233,-0.0214439,0,-0.000917343,0,0,0,0.0274849,-4.75099e-06,0.00824405,-0.3677,0.0119081,0.0244329,4.71425e-07,0.8,0.96,0
0.0411051,-0.00983366,0.0274132,4.21048e-06,0.00822522,-0.00017631,0,0,0.0498887,-0.0213746,0,-0.000916813,0,0,0,0.0274143,3.0764e-06,0.00822522,-0.368539,0.0118809,0.0243639,4.67658e-07,0.82,0.96,0
0.0421015,-0.00988417,0.0273435,1.13479e-05,0.00820647,-0.000170704,0,0,0.0497564,-0.0213073,0,-0.000887659,0,0,0,0.0273446,1.02818e-05,0.00820647,-0.357823,0.0118538,0.0242962,4.63968e-07,0.84,0.96,0
0.0430953,-0.00993131,0.027277,1.76864e-05,0.0081884,-0.000160135,0,0,0.0496303,-0.0212439,0,-0.000832702,0,0,0,0.0272779,1.67457e-05,0.0081884,-0.336569,0.0118277,0.0242318,4.60464e-07,0.86,0.96,0
0.0440867,-0.00997416,0.0272154,2.31638e-05,0.00817158,-0.00014521,0,0,0.049514,-0.0211859,0,-0.000755092,0,0,0,0.0272162,2.23884e-05,0.00817158,-0.305955,0.0118034,0.0241724,4.57244e-07,0.88,0.96,0
0.0450759,-0.0100119,0.0271606,2.77548e-05,0.0081565,-0.000126568,0,0,0.0494106,-0.0211347,0,-0.000658155,0,0,0,0.0271612,2.71644e-05,0.0081565,-0.267263,0.0117816,0.0241197,4.54388e-07,0.9,0.96,0
0.0460632,-0.0100438,0.0271138,3.14614e-05,0.00814357,-0.00010486,0,0,0.0493226,-0.0210915,0,-0.00054527,0,0,0,0.0271142,3.10554e-05,0.00814357,-0.221838,0.0117629,0.0240748,4.51964e-07,0.92,0.96,0
0.0470488,-0.0100692,0.0270762,3.43028e-05,0.00813316,-8.07285e-05,0,0,0.049252,-0.021057,0,-0.000419788,0,0,0,0.0270765,3.40618e-05,0.00813316,-0.171044,0.0117479,0.0240389,4.50025e-07,0.94,0.96,0
0.0480332,-0.0100877,0.0270488,3.63054e-05,0.00812552,-5.48034e-05,0,0,0.0492004,-0.021032,0,-0.000284978,0,0,0,0.0270489,3.61942e-05,0.00812552,-0.116242,0.0117369,0.0240127,4.48613e-07,0.96,0.96,0
0.0490168,-0.010099,0.0270321,3.74949e-05,0.00812086,-2.76953e-05,0,0,0.0491691,-0.0210168,0,-0.000144016,0,0,0,0.0270321,3.74664e-05,0.00812086,-0.058783,0.0117301,0.0239967,4.47754e-07,0.98,0.96,0
0.05,-0.0101027,0.0270264,3.78892e-05,0.0081193,-3.62669e-05,0,0,0.0491586,-0.0210117,0,-0.000188588,0,0,0,0.0270265,3.78405e-05,0.0081193,-0.0769931,0.0117279,0.0239914,4.47469e-07,1,0.96,0
0,0,0.0405905,0.0173959,0.0173959,-0.0127798,0,0,0.0603059,0,0,-0.0664549,0,0,0,0.0462507,0.0117357,0.0173959,-23.8886,0.0251274,0.0320618,1.51642e-06,0,0.98,0
0.00120612,-0.0013291,0.0370061,0.00362927,0.0121906,-0.0079972,0,0,0.0645203,-0.0222595,0,-0.0415854,0,0,0,0.0388233,0.00181205,0.0121906,-12.802,0.0176087,0.033067,1.25893e-06,0.02,0.98,0
0.00258081,-0.00264205,0.037294,0.00284062,0.0120404,-0.00515974,0,0,0.0656594,-0.0239194,0,-0.0268307,0,0,0,0.0380501,0.00208449,0.0120404,-8.337,0.0173917,0.0321649,1.17331e-06,0.04,0.98,0
0.00383249,-0.00368504,0.0336406,0.00150076,0.0105424,-0.00303972,0,0,0.0600553,-0.0235083,0,-0.0158065,0,0,0,0.0339256,0.0012158,0.0105424,-5.35564,0.0152279,0.0291864,8.51153e-07,0.06,0.98,0
0.00498302,-0.00456369,0.0309882,0.000876451,0.00955939,-0.00198139,0,0,0.0557149,-0.0225756,0,-0.0103032,0,0,0,0.031118,0.000746633,0.00955939,-3.74859,0.013808,0.0270634,6.66029e-07,0.08,0.98,0
0.00606109,-0.00531341,0.0291517,0.000548621,0.0089101,-0.00134345,0,0,0.0526282,-0.0217399,0,-0.00698593,0,0,0,0.0292147,0.00048566,0.0089101,-2.68323,0.0128702,0.0255793,5.5579e-07,0.1,0.98,0
0.00708815,-0.00596143,0.0278753,0.000368547,0.00847316,-0.000938107,0,0,0.0504456,-0.021072,0,-0.00487816,0,0,0,0.0279073,0.00033659,0.00847316,-1.95103,0.012239,0.024536,4.86943e-07,0.12,0.98,0
0.00807891,-0.00652478,0.0269738,0.000261424,0.00817057,-0.000660266,0,0,0.0488884,-0.0205638,0,-0.00343338,0,0,0,0.0269901,0.000245114,0.00817057,-1.41506,0.0118019,0.0237937,4.4195e-07,0.14,0.98,0
0.00904369,-0.00701579,0.026334,0.000193554,0.00795826,-0.000460128,0,0,0.0477769,-0.0201882,0,-0.00239267,0,0,0,0.0263421,0.000185457,0.00795826,-1.00811,0.0114953,0.0232653,4.11797e-07,0.16,0.98,0
0.00998999,-0.00744373,0.0258847,0.000148171,0.00780985,-0.000310005,0,0,0.0469945,-0.0199204,0,-0.00161203,0,0,0,0.0258884,0.000144437,0.00780985,-0.690015,0.0112809,0.0228948,3.9151e-07,0.18,0.98,0
0.0109235,-0.00781598,0.0255791,0.000116418,0.00770865,-0.000193887,0,0,0.0464631,-0.0197398,0,-0.00100821,0,0,0,0.0255806,0.000114942,0.00770865,-0.436248,0.0111347,0.0226447,3.78156e-07,0.2,0.98,0
0.0118485,-0.00813863,0.0253851,9.32939e-05,0.00764352,-0.000101918,0,0,0.0461281,-0.0196306,0,-0.000529972,0,0,0,0.0253855,9.28832e-05,0.00764352,-0.230878,0.0110406,0.022489,3.69906e-07,0.22,0.98,0
0.0127686,-0.0084169,0.0252796,7.58165e-05,0.00760662,-2.77958e-05,0,0,0.0459497,-0.0195801,0,-0.000144538,0,0,0,0.0252796,7.57858e-05,0.00760662,-0.063188,0.0109873,0.0224085,3.65558e-07,0.24,0.98,0
0.0136865,-0.00865536,0.0252454,6.21186e-05,0.00759225,3.2635e-05,0,0,0.0458981,-0.0195783,0,0.000169702,0,0,0,0.0252454,6.20763e-05,0.00759225,0.0742494,0.0109666,0.022389,3.64289e-07,0.26,0.98,0
0.0146045,-0.00885812,0.0252692,5.09841e-05,0.00759605,8.21683e-05,0,0,0.0459501,-0.0196172,0,0.000427275,0,0,0,0.0252694,5.07164e-05,0.00759605,0.186684,0.0109721,0.0224195,3.65508e-07,0.28,0.98,0
0.0155245,-0.00902895,0.0253403,4.15957e-05,0.00761457,0.000122701,0,0,0.0460869,-0.0196897,0,0.000638048,0,0,0,0.0253409,4.10006e-05,0.00761457,0.277882,0.0109988,0.0224907,3.68773e-07,0.3,0.98,0
0.016448,-0.00917136,0.0254499,3.33926e-05,0.007645,0.000155525,0,0,0.0462928,-0.0197902,0,0.000808729,0,0,0,0.0254509,3.2441e-05,0.007645,0.350578,0.0110428,0.0225953,3.73734e-07,0.32,0.98,0
0.0173762,-0.00928865,0.0255904,2.59889e-05,0.00768493,0.000181512,0,0,0.0465543,-0.0199132,0,0.000943864,0,0,0,0.0255917,2.47002e-05,0.00768493,0.406783,0.0111005,0.0227267,3.80099e-07,0.34,0.98,0
0.0183102,-0.00938398,0.0257551,1.91239e-05,0.00773226,0.000201254,0,0,0.0468593,-0.0200542,0,0.00104652,0,0,0,0.0257567,1.75502e-05,0.00773226,0.448013,0.0111688,0.022879,3.87613e-07,0.36,0.98,0
0.0192506,-0.00946034,0.0259377,1.26318e-05,0.0077851,0.000215151,0,0,0.0471967,-0.0202084,0,0.00111879,0,0,0,0.0259395,1.08464e-05,0.0077851,0.475453,0.0112451,0.0230468,3.96038e-07,0.38,0.98,0
0.020198,-0.00952062,0.0261326,6.42225e-06,0.00784169,0.000223495,0,0,0.0475562,-0.0203717,0,0.00116217,0,0,0,0.0261345,4.51051e-06,0.00784169,0.490087,0.0113269,0.0232252,4.05143e-07,0.4,0.98,0
0.0211528,-0.00956758,0.0263343,4.65578e-07,0.00790043,0.000226521,0,0,0.0479281,-0.0205399,0,0.00117791,0,0,0,0.0263363,-1.48279e-06,0.00790043,0.492804,0.0114117,0.0234094,4.14702e-07,0.42,0.98,0
0.0221152,-0.00960386,0.0265379,-5.21828e-06,0.00795979,0.000224462,0,0,0.048303,-0.020709,0,0.0011672,0,0,0,0.0265397,-7.11631e-06,0.00795979,0.484477,0.0114975,0.0235947,4.24486e-07,0.44,0.98,0
0.023085,-0.00963195,0.0267384,-1.05707e-05,0.00801834,0.000217583,0,0,0.0486721,-0.0208752,0,0.00113143,0,0,0,0.0267402,-1.23405e-05,0.00801834,0.466018,0.0115821,0.023777,4.34265e-07,0.46,0.98,0
0.024062,-0.00965417,0.0269314,-1.55053e-05,0.00807478,0.000206213,0,0,0.0490273,-0.0210347,0,0.00107231,0,0,0,0.026933,-1.70833e-05,0.00807478,0.438424,0.0116636,0.0239522,4.43811e-07,0.48,0.98,0
0.0250461,-0.00967266,0.0271129,-1.99188e-05,0.0081279,0.000190762,0,0,0.0493611,-0.0211843,0,0.000991964,0,0,0,0.0271143,-2.126e-05,0.0081279,0.402802,0.0117403,0.0241167,4.52904e-07,0.5,0.98,0
0.0260365,-0.00968935,0.0272792,-2.37031e-05,0.00817665,0.000171734,0,0,0.0496666,-0.0213209,0,0.000893019,0,0,0,0.0272803,-2.47833e-05,0.00817665,0.36037,0.0118107,0.024267,4.61335e-07,0.52,0.98,0
0.0270327,-0.00970596,0.0274271,-2.67561e-05,0.00822012,0.000149723,0,0,0.0499383,-0.0214419,0,0.000778559,0,0,0,0.027428,-2.75726e-05,0.00822012,0.312457,0.0118735,0.0244005,4.68917e-07,0.54,0.98,0
0.028034,-0.00972392,0.0275543,-2.89921e-05,0.00825758,0.000125404,0,0,0.0501714,-0.0215451,0,0.000652098,0,0,0,0.0275548,-2.95622e-05,0.00825758,0.26048,0.0119276,0.0245149,4.75488e-07,0.56,0.98,0
0.0290396,-0.00974442,0.0276587,-3.0351e-05,0.0082885,9.95151e-05,0,0,0.0503625,-0.021629,0,0.000517479,0,0,0,0.027659,-3.07087e-05,0.0082885,0.205919,0.0119723,0.0246084,4.80923e-07,0.58,0.98,0
0.0300485,-0.00976836,0.0277392,-3.08048e-05,0.00831253,7.28348e-05,0,0,0.0505095,-0.0216927,0,0.000378741,0,0,0,0.0277394,-3.09958e-05,0.00831253,0.150273,0.012007,0.0246801,4.85133e-07,0.6,0.98,0
0.03106,-0.00979636,0.0277955,-3.0361e-05,0.00832955,4.61487e-05,0,0,0.0506116,-0.0217358,0,0.000239973,0,0,0,0.0277956,-3.04375e-05,0.00832955,0.0950236,0.0120316,0.0247296,4.88075e-07,0.62,0.98,0
0.032073,-0.00982875,0.0278278,-2.90639e-05,0.00833963,2.02201e-05,0,0,0.0506693,-0.0217586,0,0.000105145,0,0,0,0.0278278,-2.90786e-05,0.00833963,0.0415886,0.0120461,0.0247572,4.89748e-07,0.64,0.98,0
0.0330867,-0.00986559,0.0278371,-2.69921e-05,0.00834302,-4.24102e-06,0,0,0.0506845,-0.021762,0,-2.20533e-05,0,0,0,0.0278371,-2.69927e-05,0.00834302,-0.00872064,0.012051,0.0247637,4.90196e-07,0.66,0.98,0
0.0341004,-0.00990672,0.0278248,-2.42538e-05,0.00834017,-2.66063e-05,0,0,0.0506601,-0.0217475,0,-0.000138353,0,0,0,0.0278249,-2.42792e-05,0.00834017,-0.0547387,0.0120469,0.0247507,4.895e-07,0.68,0.98,0
0.0351131,-0.00995173,0.0277932,-2.09796e-05,0.00833167,-4.6351e-05,0,0,0.0506,-0.0217169,0,-0.000241025,0,0,0,0.0277933,-2.10568e-05,0.00833167,-0.0954802,0.0120346,0.02472,4.87776e-07,0.7,0.98,0
0.0361244,-0.01,0.0277447,-1.73139e-05,0.00831823,-6.30703e-05,0,0,0.0505089,-0.0216724,0,-0.000327965,0,0,0,0.0277449,-1.74571e-05,0.00831823,-0.130165,0.0120152,0.0246741,4.85166e-07,0.72,0.98,0
0.0371335,-0.0100508,0.0276823,-1.34058e-05,0.00830066,-7.64872e-05,0,0,0.0503922,-0.0216166,0,-0.000397733,0,0,0,0.0276825,-1.3617e-05,0.00830066,-0.158232,0.0119898,0.0246156,4.81829e-07,0.74,0.98,0
0.03814,-0.0101033,0.0276089,-9.40053e-06,0.00827985,-8.64528e-05,0,0,0.0502555,-0.021552,0,-0.000449555,0,0,0,0.0276092,-9.67115e-06,0.00827985,-0.179349,0.0119598,0.0245473,4.77937e-07,0.76,0.98,0
0.0391437,-0.0101564,0.0275277,-5.43154e-06,0.00825668,-9.29399e-05,0,0,0.0501047,-0.0214815,0,-0.000483287,0,0,0,0.027528,-5.74526e-06,0.00825668,-0.193403,0.0119263,0.024472,4.73664e-07,0.78,0.98,0
0.0401442,-0.0102093,0.0274419,-1.61455e-06,0.00823208,-9.60295e-05,0,0,0.0499455,-0.0214076,0,-0.000499354,0,0,0,0.0274422,-1.95057e-06,0.00823208,-0.200484,0.0118908,0.0243927,4.6918e-07,0.8,0.98,0
0.0411415,-0.0102608,0.0273545,1.95622e-06,0.00820693,-9.58947e-05,0,0,0.0497836,-0.0213329,0,-0.000498653,0,0,0,0.0273548,1.62003e-06,0.00820693,-0.200869,0.0118545,0.0243122,4.64646e-07,0.82,0.98,0
0.0421356,-0.0103099,0.0272683,5.20971e-06,0.00818207,-9.27805e-05,0,0,0.0496243,-0.0212598,0,-0.000482459,0,0,0,0.0272687,4.89397e-06,0.00818207,-0.194983,0.0118185,0.024233,4.6021e-07,0.84,0.98,0
0.0431265,-0.0103558,0.0271861,8.09755e-06,0.00815826,-8.69842e-05,0,0,0.0494724,-0.0211904,0,-0.000452318,0,0,0,0.0271864,7.81916e-06,0.00815826,-0.183375,0.0117842,0.0241575,4.56003e-07,0.86,0.98,0
0.0441145,-0.0103974,0.0271101,1.05918e-05,0.00813621,-7.88367e-05,0,0,0.0493321,-0.0211266,0,-0.000409951,0,0,0,0.0271103,1.03624e-05,0.00813621,-0.166681,0.0117523,0.0240879,4.52141e-07,0.88,0.98,0
0.0450998,-0.0104341,0.0270424,1.26813e-05,0.00811652,-6.86862e-05,0,0,0.0492072,-0.02107,0,-0.000357168,0,0,0,0.0270425,1.25067e-05,0.00811652,-0.145595,0.0117239,0.0240259,4.4872e-07,0.9,0.98,0
0.0460828,-0.0104651,0.0269847,1.43674e-05,0.00809971,-5.68853e-05,0,0,0.0491009,-0.0210219,0,-0.000295803,0,0,0,0.0269848,1.42474e-05,0.00809971,-0.120847,0.0116996,0.0239732,4.45819e-07,0.92,0.98,0
0.0470638,-0.0104898,0.0269383,1.56594e-05,0.0080862,-4.37822e-05,0,0,0.0490155,-0.0209834,0,-0.000227668,0,0,0,0.0269384,1.55882e-05,0.0080862,-0.0931753,0.0116801,0.0239309,4.435e-07,0.94,0.98,0
0.0480434,-0.0105078,0.0269045,1.65696e-05,0.00807632,-2.97161e-05,0,0,0.0489532,-0.0209553,0,-0.000154524,0,0,0,0.0269045,1.65368e-05,0.00807632,-0.0633224,0.0116658,0.0239,4.41812e-07,0.96,0.98,0
0.0490219,-0.0105187,0.0268839,1.71101e-05,0.00807029,-1.50155e-05,0,0,0.0489153,-0.0209383,0,-7.80804e-05,0,0,0,0.0268839,1.71017e-05,0.00807029,-0.0320218,0.0116571,0.0238813,4.40786e-07,0.98,0.98,0
0.05,-0.0105224,0.026877,1.72892e-05,0.00806827,-3.52486e-05,0,0,0.0489026,-0.0209326,0,-0.000183293,0,0,0,0.026877,1.7243e-05,0.00806827,-0.0751904,0.0116542,0.023875,4.40445e-07,1,0.98,0
0,0,0.067588,0.0289663,0.0289663,-0.0188859,0,0,0.100416,-6.93889e-18,0,-0.0982066,0,0,0,0.0752879,0.0212663,0.0289663,-22.1813,0.0418402,0.0506129,6.14262e-06,0,1,0
0.00200833,-0.00196413,0.0486594,0.00340802,0.0156202,-0.00747593,0,0,0.0859019,-0.0317518,0,-0.0388748,0,0,0,0.0498625,0.00220492,0.0156202,-9.14223,0.0225626,0.0425662,2.67519e-06,0.02,1,0
0.00343608,-0.00315941,0.0363958,0.00138497,0.0113342,-0.00238568,0,0,0.06516,-0.025868,0,-0.0124055,0,0,0,0.0365576,0.00122316,0.0113342,-3.8803,0.0163717,0.0315196,1.06804e-06,0.04,1,0
0.00461473,-0.00417089,0.0307942,-0.00014984,0.0091933,-0.00140578,0,0,0.0561623,-0.0242922,0,-0.00731004,0,0,0,0.0308579,-0.000213572,0.0091933,-2.5958,0.0132792,0.0275978,6.7195e-07,0.06,1,0
0.00568257,-0.00501628,0.0282789,-0.000314498,0.00838933,-0.000838091,0,0,0.051713,-0.02263,0,-0.00435807,0,0,0,0.0283035,-0.000339042,0.00838933,-1.67745,0.0121179,0.0254279,5.21248e-07,0.08,1,0
0.00668325,-0.0057443,0.0267363,-0.000379159,0.00790713,-0.000558091,0,0,0.0489557,-0.0215443,0,-0.00290207,0,0,0,0.0267477,-0.000390641,0.00790713,-1.1786,0.0114214,0.0240864,4.41123e-07,0.1,1,0
0.0076408,-0.00637668,0.0257456,-0.000374363,0.00761137,-0.000381875,0,0,0.047149,-0.0207629,0,-0.00198575,0,0,0,0.0257512,-0.000379945,0.00761137,-0.837428,0.0109942,0.0231921,3.93692e-07,0.12,1,0
0.00856921,-0.00692902,0.0250819,-0.000356168,0.00741773,-0.000264581,0,0,0.045927,-0.0202121,0,-0.00137582,0,0,0,0.0250847,-0.00035892,0.00741773,-0.595846,0.0107145,0.0225829,3.63741e-07,0.14,1,0
0.00947788,-0.0074123,0.0246416,-0.000332589,0.0072927,-0.000180763,0,0,0.0451071,-0.0198258,0,-0.000939969,0,0,0,0.0246429,-0.000333897,0.0072927,-0.414678,0.0105339,0.0221702,3.4459e-07,0.16,1,0
0.0103735,-0.007835,0.0243622,-0.00030816,0.00721621,-0.00011827,0,0,0.0445796,-0.0195634,0,-0.000615005,0,0,0,0.0243628,-0.000308727,0.00721621,-0.274669,0.0104234,0.021901,3.32671e-07,0.18,1,0
0.0112611,-0.00820391,0.0242045,-0.000284175,0.00717611,-7.00603e-05,0,0,0.0442739,-0.0193967,0,-0.000364314,0,0,0,0.0242047,-0.000284375,0.00717611,-0.163917,0.0103655,0.0217411,3.25929e-07,0.2,1,0
0.0121444,-0.00852475,0.0241419,-0.000261122,0.00716423,-3.19263e-05,0,0,0.0441419,-0.0193059,0,-0.000166017,0,0,0,0.0241419,-0.000261163,0.00716423,-0.0749595,0.0103483,0.0216667,3.23087e-07,0.22,1,0
0.0130267,-0.00880243,0.0241552,-0.000239095,0.00717482,-1.204e-06,0,0,0.0441489,-0.0192762,0,-6.2608e-06,0,0,0,0.0241552,-0.000239095,0.00717482,-0.00282788,0.0103636,0.0216608,3.23309e-07,0.24,1,0
0.0139104,-0.00904129,0.0242301,-0.000218054,0.00720361,2.38436e-05,0,0,0.0442689,-0.0192963,0,0.000123987,0,0,0,0.0242301,-0.000218077,0.00720361,0.0558789,0.0104052,0.0217106,3.26023e-07,0.26,1,0
0.0147975,-0.00924527,0.0243555,-0.000197913,0.00724729,4.43737e-05,0,0,0.0444814,-0.0193575,0,0.000230743,0,0,0,0.0243556,-0.000197993,0.00724729,0.103546,0.0104683,0.021806,3.30814e-07,0.28,1,0
0.0156897,-0.009418,0.0245224,-0.000178587,0.00730314,6.11641e-05,0,0,0.04477,-0.0194525,0,0.000318053,0,0,0,0.0245225,-0.000178738,0.00730314,0.141874,0.010549,0.021939,3.37366e-07,0.3,1,0
0.0165883,-0.00956286,0.0247229,-0.000160006,0.00736886,7.47375e-05,0,0,0.0451205,-0.0195751,0,0.000388635,0,0,0,0.0247231,-0.000160231,0.00736886,0.17209,0.0106439,0.0221025,3.45419e-07,0.32,1,0
0.0174945,-0.00968305,0.0249502,-0.00014213,0.00744242,8.5442e-05,0,0,0.0455202,-0.0197198,0,0.000444298,0,0,0,0.0249505,-0.000142421,0.00744242,0.195095,0.0107502,0.0222903,3.54748e-07,0.34,1,0
0.0184091,-0.00978161,0.025198,-0.000124943,0.00752191,9.35071e-05,0,0,0.0459578,-0.0198818,0,0.000486237,0,0,0,0.0251983,-0.000125289,0.00752191,0.211566,0.010865,0.0224969,3.65142e-07,0.36,1,0
0.0193328,-0.00986146,0.0254603,-0.000108459,0.00760555,9.90854e-05,0,0,0.0464224,-0.0200564,0,0.000515244,0,0,0,0.0254607,-0.000108843,0.00760555,0.222031,0.0109858,0.0227169,3.76389e-07,0.38,1,0
0.020266,-0.0099254,0.0257314,-9.27162e-05,0.0076916,0.000102284,0,0,0.0469034,-0.0202392,0,0.000531876,0,0,0,0.0257318,-9.31214e-05,0.0076916,0.226932,0.0111101,0.0229453,3.8827e-07,0.4,1,0
0.0212089,-0.0099761,0.0260056,-7.77743e-05,0.00777835,0.000103189,0,0,0.0473909,-0.0204259,0,0.000536584,0,0,0,0.026006,-7.81825e-05,0.00777835,0.226665,0.0112354,0.0231771,4.00556e-07,0.42,1,0
0.0221616,-0.0100161,0.0262776,-6.37101e-05,0.00786415,0.00010189,0,0,0.0478748,-0.0206124,0,0.00052983,0,0,0,0.0262779,-6.41042e-05,0.00786415,0.221621,0.0113593,0.0234076,4.13004e-07,0.44,1,0
0.0231239,-0.0100478,0.0265419,-5.06118e-05,0.00794739,9.8493e-05,0,0,0.0483458,-0.0207948,0,0.000512164,0,0,0,0.0265423,-5.09766e-05,0.00794739,0.212207,0.0114796,0.023632,4.25358e-07,0.46,1,0
0.0240955,-0.0100736,0.0267937,-3.85731e-05,0.00802653,9.31338e-05,0,0,0.0487946,-0.0209693,0,0.000484296,0,0,0,0.026794,-3.88963e-05,0.00802653,0.198868,0.0115939,0.0238461,4.37356e-07,0.48,1,0
0.0250757,-0.0100953,0.0270282,-2.76868e-05,0.00810015,8.59882e-05,0,0,0.0492129,-0.0211324,0,0.000447139,0,0,0,0.0270285,-2.79601e-05,0.00810015,0.182093,0.0117002,0.0240458,4.48739e-07,0.5,1,0
0.026064,-0.010115,0.0272413,-1.80387e-05,0.00816697,7.72745e-05,0,0,0.0495932,-0.021281,0,0.000401828,0,0,0,0.0272415,-1.82578e-05,0.00816697,0.16242,0.0117967,0.0242274,4.59254e-07,0.52,1,0
0.0270594,-0.0101342,0.0274293,-9.7014e-06,0.00822589,6.72537e-05,0,0,0.0499289,-0.0214125,0,0.000349719,0,0,0,0.0274295,-9.86624e-06,0.00822589,0.140432,0.0118818,0.0243877,4.68671e-07,0.54,1,0
0.0280611,-0.0101544,0.0275895,-2.72903e-06,0.00827602,5.62244e-05,0,0,0.0502149,-0.0215247,0,0.000292367,0,0,0,0.0275896,-2.8436e-06,0.00827602,0.11675,0.0119542,0.0245244,4.76794e-07,0.56,1,0
0.029068,-0.0101767,0.0277196,2.84728e-06,0.00831673,4.45147e-05,0,0,0.0504474,-0.0216161,0,0.000231477,0,0,0,0.0277197,2.77579e-06,0.00831673,0.0920201,0.0120131,0.0246356,4.83465e-07,0.58,1,0
0.030079,-0.0102021,0.0278185,7.02271e-06,0.00834766,3.2471e-05,0,0,0.0506242,-0.0216856,0,0.000168849,0,0,0,0.0278185,6.9848e-06,0.00834766,0.0668949,0.0120577,0.0247201,4.88578e-07,0.6,1,0
0.031093,-0.010231,0.0278859,9.8207e-06,0.00836871,2.04438e-05,0,0,0.0507446,-0.0217331,0,0.000106308,0,0,0,0.0278859,9.80571e-06,0.00836871,0.0420198,0.0120881,0.0247777,4.92082e-07,0.62,1,0
0.0321088,-0.0102639,0.0279223,1.12935e-05,0.00838006,8.77418e-06,0,0,0.0508097,-0.0217588,0,4.56257e-05,0,0,0,0.0279223,1.12907e-05,0.00838006,0.0180117,0.0121045,0.0248088,4.93982e-07,0.64,1,0
0.0331254,-0.0103009,0.0279291,1.15212e-05,0.00838218,-2.22097e-06,0,0,0.0508219,-0.0217637,0,-1.1549e-05,0,0,0,0.0279291,1.1521e-05,0.00838218,-0.00455814,0.0121076,0.0248147,4.9434e-07,0.66,1,0
0.0341417,-0.0103417,0.0279085,1.06094e-05,0.00837574,-1.22611e-05,0,0,0.0507853,-0.0217493,0,-6.37578e-05,0,0,0,0.0279085,1.0604e-05,0.00837574,-0.0251814,0.0120983,0.0247972,4.93267e-07,0.68,1,0
0.0351568,-0.0103861,0.0278635,8.68574e-06,0.00836165,-2.11126e-05,0,0,0.0507047,-0.0217177,0,-0.000109785,0,0,0,0.0278635,8.66974e-06,0.00836165,-0.0434274,0.0120779,0.0247587,4.90918e-07,0.7,1,0
0.0361699,-0.0104334,0.0277973,5.89572e-06,0.00834095,-2.85956e-05,0,0,0.0505864,-0.0216711,0,-0.000148697,0,0,0,0.0277973,5.8663e-06,0.00834095,-0.0589537,0.012048,0.0247021,4.87481e-07,0.72,1,0
0.0371803,-0.0104831,0.0277137,2.39737e-06,0.00831483,-3.45881e-05,0,0,0.0504371,-0.0216123,0,-0.000179858,0,0,0,0.0277137,2.3542e-06,0.00831483,-0.0715141,0.0120103,0.0246306,4.83163e-07,0.74,1,0
0.0381874,-0.0105342,0.0276167,-1.64379e-06,0.00828453,-3.90256e-05,0,0,0.0502638,-0.0215441,0,-0.000202933,0,0,0,0.0276168,-1.69893e-06,0.00828453,-0.0809605,0.0119665,0.0245477,4.78186e-07,0.76,1,0
0.0391908,-0.0105858,0.0275105,-6.06008e-06,0.00825133,-4.18984e-05,0,0,0.0500738,-0.0214692,0,-0.000217872,0,0,0,0.0275106,-6.12387e-06,0.00825133,-0.0872419,0.0119186,0.0244568,4.7277e-07,0.78,1,0
0.0401903,-0.0106371,0.027399,-1.06865e-05,0.00821649,-4.32455e-05,0,0,0.0498745,-0.0213906,0,-0.000224876,0,0,0,0.027399,-1.07548e-05,0.00821649,-0.0903979,0.0118683,0.0243614,4.67129e-07,0.8,1,0
0.0411858,-0.010687,0.027286,-1.53653e-05,0.0081812,-4.31466e-05,0,0,0.0496726,-0.0213111,0,-0.000224362,0,0,0,0.0272861,-1.54334e-05,0.0081812,-0.0905488,0.0118173,0.0242648,4.61462e-07,0.82,1,0
0.0421772,-0.0107346,0.0271753,-1.9949e-05,0.0081466,-4.17139e-05,0,0,0.0494746,-0.021233,0,-0.000216912,0,0,0,0.0271754,-2.0013e-05,0.0081466,-0.0878839,0.0117673,0.02417,4.55949e-07,0.84,1,0
0.0431648,-0.0107789,0.02707,-2.43041e-05,0.00811371,-3.90825e-05,0,0,0.0492864,-0.0211588,0,-0.000203229,0,0,0,0.0270701,-2.43605e-05,0.00811371,-0.0826468,0.0117198,0.0240799,4.50749e-07,0.86,1,0
0.0441487,-0.0108192,0.0269731,-2.83121e-05,0.00808343,-3.5402e-05,0,0,0.0491131,-0.0210905,0,-0.000184091,0,0,0,0.0269731,-2.83585e-05,0.00808343,-0.0751214,0.0116761,0.0239969,4.45995e-07,0.88,1,0
0.0451293,-0.0108547,0.026887,-3.18709e-05,0.00805653,-3.08293e-05,0,0,0.0489591,-0.0210298,0,-0.000160312,0,0,0,0.026887,-3.19062e-05,0.00805653,-0.065619,0.0116372,0.0239232,4.41801e-07,0.9,1,0
0.046107,-0.0108846,0.0268138,-3.48953e-05,0.00803366,-2.55226e-05,0,0,0.0488283,-0.0209782,0,-0.000132718,0,0,0,0.0268138,-3.49196e-05,0.00803366,-0.0544659,0.0116042,0.0238605,4.38256e-07,0.92,1,0
0.0470824,-0.0109085,0.0267551,-3.73168e-05,0.00801535,-1.96377e-05,0,0,0.0487235,-0.0209369,0,-0.000102116,0,0,0,0.0267552,-3.73312e-05,0.00801535,-0.0419953,0.0115777,0.0238103,4.35431e-07,0.94,1,0
0.048056,-0.0109259,0.0267124,-3.90831e-05,0.00800199,-1.33257e-05,0,0,0.048647,-0.0209068,0,-6.92936e-05,0,0,0,0.0267124,-3.90898e-05,0.00800199,-0.0285407,0.0115584,0.0237737,4.33378e-07,0.96,1,0
0.0490283,-0.0109365,0.0266864,-4.01574e-05,0.00799387,-6.73253e-06,0,0,0.0486005,-0.0208885,0,-3.50092e-05,0,0,0,0.0266864,-4.01591e-05,0.00799387,-0.0144331,0.0115467,0.0237515,4.32132e-07,0.98,1,0
0.05,-0.01094,0.0266776,-4.05179e-05,0.00799114,-3.40654e-05,0,0,0.0485849,-0.0208823,0,-0.00017714,0,0,0,0.0266777,-4.05614e-05,0.00799114,-0.0730514,0.0115428,0.0237441,4.31717e-07,1,1,0
